 vasp.6.3.2 27Jun22 (build Jan 05 2024 11:34:19) complex

 executed on           IFC15_impi date 2024.01.08  15:54:19

 INCAR:
   SYSTEM = MgO-rocksalt
   ISMEAR = 0
   SIGMA = 0.05
   EDIFF = 1E-6
   ALGO = ALL
   ISTART = 0
   IBRION = -1
   NSW = 0
   ISYM = 2
   DIPOL = 0.5 0.5 0.5
   IDIPOL = 3
   LDIPOL = .TRUE.
   METAGGA = M06L
   ENCUT = 520
   PREC = Accurate
   LASPH = .TRUE.
   LREAL = Auto
   ISPIN = 1
   NELM = 2000
   NELMIN = 8
   NCORE = 8
   LWAVE = .FALSE.
   LCHARG = .FALSE.

 POTCAR:    PAW_PBE Ag 02Apr2005
 POTCAR:    PAW_PBE Mg_pv 13Apr2007
 POTCAR:    PAW_PBE O 08Apr2002
 POTCAR:    PAW_PBE Ag 02Apr2005
   VRHFIN =Ag : s1 d10

   TITEL  = PAW_PBE Ag 02Apr2005
   POMASS =  107.868; ZVAL   =   11.000    mass and valenz
   ENMAX  =  249.844; ENMIN  =  187.383 eV

   TITEL  = PAW_PBE Mg_pv 13Apr2007
   POMASS =   24.305; ZVAL   =    8.000    mass and valenz
   ENMAX  =  403.929; ENMIN  =  302.947 eV

   TITEL  = PAW_PBE O 08Apr2002
   POMASS =   16.000; ZVAL   =    6.000    mass and valenz
   ENMAX  =  400.000; ENMIN  =  300.000 eV

 Optimization of the real space projectors (new method)

 maximal supplied QI-value         = 15.12
 optimisation between [QCUT,QGAM] = [ 11.64, 23.28] = [ 37.95,151.78] Ry
 Optimized for a Real-space Cutoff    1.45 Angstroem

   l    n(q)    QCUT    max X(q) W(low)/X(q) W(high)/X(q)  e(spline)
   2      9    11.641    53.897    0.22E-03    0.42E-04    0.28E-06
   2      9    11.641    52.416    0.23E-03    0.44E-04    0.29E-06
   0     10    11.641   122.045    0.51E-04    0.25E-04    0.16E-06
   0     10    11.641    73.629    0.49E-04    0.24E-04    0.16E-06
   1     10    11.641    15.255    0.99E-04    0.55E-04    0.11E-06
   1     10    11.641     9.562    0.81E-04    0.47E-04    0.95E-07
 Optimization of the real space projectors (new method)

[...]

   l    n(q)    QCUT    max X(q) W(low)/X(q) W(high)/X(q)  e(spline)
   1      8    11.527     2.974    0.44E-04    0.56E-04    0.12E-06
   1      8    11.527     4.279    0.12E-03    0.12E-03    0.26E-06
   0      9    11.527    16.381    0.46E-04    0.64E-04    0.78E-07
   0      9    11.527     5.611    0.26E-04    0.43E-04    0.55E-07
   2      8    11.527     4.652    0.22E-03    0.72E-04    0.47E-07
 Optimization of the real space projectors (new method)

 maximal supplied QI-value         = 24.76
 optimisation between [QCUT,QGAM] = [ 11.64, 23.27] = [ 37.91,151.63] Ry
 Optimized for a Real-space Cutoff    1.14 Angstroem

   l    n(q)    QCUT    max X(q) W(low)/X(q) W(high)/X(q)  e(spline)
   0      8    11.635    20.381    0.10E-03    0.33E-03    0.24E-06
   0      8    11.635    15.268    0.11E-03    0.35E-03    0.26E-06
   1      7    11.635     5.964    0.24E-03    0.31E-03    0.30E-06
   1      7    11.635     5.382    0.22E-03    0.25E-03    0.26E-06
  PAW_PBE Ag 02Apr2005                  :
  PAW_PBE Mg_pv 13Apr2007               :
  PAW_PBE O 08Apr2002                   :

 POSCAR: Ag Mg  O
  positions in direct lattice

 METAGGA = M06L     LMAXTAU =  6    LMIXTAU =  F

 VTST: version 4.1, (05/19/21)

 CHAIN: initializing optimizer

 OPT: Using VASP Dynamics algorithm
 CHAIN: Read ICHAIN            0

 POSCAR: Ag Mg  O
  positions in direct lattice

 ion  position               nearest neighbor table
   1  0.500  0.500  0.720-   2 2.55
   2  0.500  0.500  0.605- 152 2.27   1 2.55
   3  0.000  0.000  0.407- 105 2.11 106 2.11 121 2.11 186 2.11 103 2.11
   4  0.100  0.100  0.407- 105 2.11 106 2.11 110 2.11 125 2.11 104 2.11
   5  0.000  0.100  0.503- 103 2.11 104 2.11 107 2.11 184 2.11 105 2.11
   6  0.100  0.000  0.503- 103 2.11 104 2.11 120 2.11 123 2.11 106 2.11
   7  0.000  0.200  0.407- 109 2.11 105 2.11 110 2.11 190 2.11 107 2.11
   8  0.100  0.300  0.407- 110 2.11 109 2.11 114 2.11 129 2.11 108 2.11
   9  0.000  0.300  0.503- 107 2.11 108 2.11 111 2.11 188 2.11 109 2.11
  10  0.100  0.200  0.503- 108 2.11 107 2.11 104 2.11 127 2.11 110 2.11
  11  0.000  0.400  0.407- 109 2.11 113 2.11 114 2.11 194 2.11 111 2.11
  12  0.100  0.500  0.407- 113 2.11 114 2.11 118 2.11 133 2.11 112 2.11
  13  0.000  0.500  0.503- 111 2.11 112 2.11 115 2.11 192 2.11 113 2.11
  14  0.100  0.400  0.503- 108 2.11 111 2.11 112 2.11 131 2.11 114 2.11
  15  0.000  0.600  0.407- 113 2.11 117 2.11 118 2.11 198 2.11 115 2.11
  16  0.100  0.700  0.407- 122 2.11 118 2.11 117 2.11 137 2.11 116 2.11
  17  0.000  0.700  0.503- 119 2.11 116 2.11 115 2.11 196 2.11 117 2.11
  18  0.100  0.600  0.503- 112 2.11 115 2.11 116 2.11 135 2.11 118 2.11
  19  0.000  0.800  0.407- 117 2.11 121 2.11 122 2.11 202 2.11 119 2.11
  20  0.100  0.900  0.407- 106 2.11 121 2.11 122 2.11 141 2.11 120 2.11
  21  0.000  0.900  0.503- 103 2.11 119 2.11 120 2.11 200 2.11 121 2.11
  22  0.100  0.800  0.503- 116 2.11 119 2.11 120 2.11 139 2.11 122 2.11
  23  0.200  0.000  0.407- 126 2.11 125 2.11 106 2.11 141 2.11 123 2.11
  24  0.300  0.100  0.407- 125 2.11 126 2.11 130 2.11 145 2.11 124 2.11
  25  0.200  0.100  0.503- 124 2.11 123 2.11 104 2.11 127 2.11 125 2.11
  26  0.300  0.000  0.503- 123 2.11 124 2.11 140 2.11 143 2.11 126 2.11
  27  0.200  0.200  0.407- 129 2.11 130 2.11 110 2.11 125 2.11 127 2.11
  28  0.300  0.300  0.407- 129 2.11 130 2.11 134 2.11 149 2.11 128 2.11
  29  0.200  0.300  0.503- 127 2.11 128 2.11 108 2.11 131 2.11 129 2.11
  30  0.300  0.200  0.503- 127 2.11 128 2.11 124 2.11 147 2.11 130 2.11
  31  0.200  0.400  0.407- 134 2.11 129 2.11 133 2.11 114 2.11 131 2.11
  32  0.300  0.500  0.407- 133 2.11 134 2.11 138 2.11 153 2.11 132 2.11
  33  0.200  0.500  0.503- 132 2.11 131 2.11 112 2.11 135 2.11 133 2.11
  34  0.300  0.400  0.503- 131 2.11 128 2.11 132 2.11 151 2.11 134 2.11
  35  0.200  0.600  0.407- 138 2.11 133 2.11 137 2.11 118 2.11 135 2.11
  36  0.300  0.700  0.407- 137 2.11 142 2.11 138 2.11 157 2.11 136 2.11
  37  0.200  0.700  0.503- 136 2.11 139 2.11 116 2.11 135 2.11 137 2.11
  38  0.300  0.600  0.503- 135 2.11 132 2.11 136 2.11 155 2.11 138 2.11
  39  0.200  0.800  0.407- 137 2.11 142 2.11 141 2.11 122 2.11 139 2.11
  40  0.300  0.900  0.407- 141 2.11 126 2.11 142 2.11 161 2.11 140 2.11
  41  0.200  0.900  0.503- 140 2.11 123 2.11 139 2.11 120 2.11 141 2.11
  42  0.300  0.800  0.503- 136 2.11 139 2.11 140 2.11 159 2.11 142 2.11
  43  0.400  0.000  0.407- 126 2.11 145 2.11 146 2.11 161 2.11 143 2.11
  44  0.500  0.100  0.407- 145 2.11 146 2.11 150 2.11 165 2.11 144 2.11
  45  0.400  0.100  0.503- 124 2.11 143 2.11 144 2.11 147 2.11 145 2.11
  46  0.500  0.000  0.503- 143 2.11 144 2.11 160 2.11 163 2.11 146 2.11
  47  0.400  0.200  0.407- 149 2.11 145 2.11 130 2.11 150 2.11 147 2.11
  48  0.500  0.300  0.407- 150 2.11 149 2.11 154 2.11 169 2.11 148 2.11
  49  0.400  0.300  0.503- 147 2.11 128 2.11 148 2.11 151 2.11 149 2.11
  50  0.500  0.200  0.503- 148 2.11 147 2.11 144 2.11 167 2.11 150 2.11
  51  0.400  0.400  0.407- 134 2.11 149 2.11 153 2.11 154 2.11 151 2.11
  52  0.500  0.500  0.407- 153 2.11 154 2.11 158 2.11 173 2.11 152 2.11
  53  0.400  0.500  0.503- 132 2.11 151 2.11 152 2.11 155 2.11 153 2.11
  54  0.500  0.400  0.503- 148 2.11 151 2.11 152 2.11 171 2.11 154 2.11
  55  0.400  0.600  0.407- 138 2.11 153 2.11 157 2.11 158 2.11 155 2.11
  56  0.500  0.700  0.407- 162 2.11 158 2.11 157 2.11 177 2.11 156 2.11
  57  0.400  0.700  0.503- 159 2.11 155 2.11 156 2.11 136 2.11 157 2.11
  58  0.500  0.600  0.503- 152 2.11 155 2.11 156 2.11 175 2.11 158 2.11
  59  0.400  0.800  0.407- 157 2.11 142 2.11 161 2.11 162 2.11 159 2.11
  60  0.500  0.900  0.407- 146 2.11 161 2.11 162 2.11 181 2.11 160 2.11
[...]
 188  0.900  0.300  0.503-  90 2.11  89 2.11   9 2.11  94 2.11  88 2.11
 189  0.800  0.300  0.407-  68 2.11  87 2.11  88 2.11  91 2.11  89 2.11
 190  0.900  0.200  0.407-  88 2.11  84 2.11  87 2.11   7 2.11  90 2.11
 191  0.800  0.400  0.503-  74 2.11  89 2.11  93 2.11  94 2.11  91 2.11
 192  0.900  0.500  0.503-  13 2.11  93 2.11  94 2.11  98 2.11  92 2.11
 193  0.800  0.500  0.407-  72 2.11  91 2.11  92 2.11  95 2.11  93 2.11
 194  0.900  0.400  0.407-  11 2.11  88 2.11  91 2.11  92 2.11  94 2.11
 195  0.800  0.600  0.503-  78 2.11  93 2.11  97 2.11  98 2.11  95 2.11
 196  0.900  0.700  0.503- 102 2.11  97 2.11  98 2.11  17 2.11  96 2.11
 197  0.800  0.700  0.407-  76 2.11  99 2.11  96 2.11  95 2.11  97 2.11
 198  0.900  0.600  0.407-  15 2.11  92 2.11  95 2.11  96 2.11  98 2.11
 199  0.800  0.800  0.503-  82 2.11  97 2.11 101 2.11 102 2.11  99 2.11
 200  0.900  0.900  0.503-  21 2.11  86 2.11 101 2.11 102 2.11 100 2.11
 201  0.800  0.900  0.407-  80 2.11  83 2.11  99 2.11 100 2.11 101 2.11
 202  0.900  0.800  0.407-  96 2.11  19 2.11  99 2.11 100 2.11 102 2.11

  LATTYP: Found a simple tetragonal cell.
 ALAT       =    21.1388521970
 C/A-ratio  =     1.0461251639

  Lattice vectors:

 A1 = (  21.1388521970,   0.0000000000,   0.0000000000)
 A2 = (   0.0000000000,  21.1388521970,   0.0000000000)
 A3 = (   0.0000000000,   0.0000000000,  22.1138852197)

Analysis of symmetry for initial positions (statically):
 Subroutine PRICEL returns:
 Original cell was already a primitive cell.

 Routine SETGRP: Setting up the symmetry group for a
 simple tetragonal supercell.

 Subroutine GETGRP returns: Found  8 space group operations
 (whereof  8 operations were pure point group operations)
 out of a pool of 16 trial point group operations.

The static configuration has the point symmetry C_4v.

Analysis of symmetry for dynamics (positions and initial velocities):
 Subroutine PRICEL returns:
 Original cell was already a primitive cell.

 Routine SETGRP: Setting up the symmetry group for a
 simple tetragonal supercell.

 Subroutine GETGRP returns: Found  8 space group operations
 (whereof  8 operations were pure point group operations)
 out of a pool of 16 trial point group operations.

The dynamic configuration has the point symmetry C_4v.

 Subroutine INISYM returns: Found  8 space group operations
 (whereof  8 operations are pure point group operations),
 and found     1 'primitive' translations

                                     Primitive cell

  volume of cell :    9881.6133

  direct lattice vectors                    reciprocal lattice vectors
    21.138852197  0.000000000  0.000000000     0.047306258  0.000000000  0.000000000
     0.000000000 21.138852197  0.000000000     0.000000000  0.047306258  0.000000000
     0.000000000  0.000000000 22.113885220     0.000000000  0.000000000  0.045220457

  length of vectors
    21.138852197 21.138852197 22.113885220     0.047306258  0.047306258  0.045220457

  position of ions in fractional coordinates (direct lattice)
     0.500000000  0.500000000  0.720254265
     0.500000000  0.500000000  0.605068473
     0.000000000  0.000000000  0.406984115
     0.100000000  0.100000000  0.406984115
     0.000000000  0.100000000  0.502574971
     0.100000000  0.000000000  0.502574971
     0.000000000  0.200000000  0.406984115
     0.100000000  0.300000000  0.406984115
     0.000000000  0.300000000  0.502574971
     0.100000000  0.200000000  0.502574971
     0.000000000  0.400000000  0.406984115
     0.100000000  0.500000000  0.406984115
     0.000000000  0.500000000  0.502574971
     0.100000000  0.400000000  0.502574971
     0.000000000  0.600000000  0.406984115
[...]
  501                  map_gather                            0.006830                  6   8
  502                  m_alltoallv_z                         0.027451                  6   8
  503                  map_scatter                           0.004082                  6   8
  504          m_sumb_d                              0.000458                          3   4
  505        fortau                                0.563280                            1   3
  506          m_sumb_d                              0.000254                          1   4
  507        forhar                                0.557128                            1   3
  508          m_sumb_d                              0.000191                          1   4
  509        strehar                               0.012791                            1   3
  510          m_sumb_d                              0.000344                          1   4
  511        m_bcast_d                             0.000375                            2   3
  512      potlok                                0.086688                              1   2
  513        fft3d_mpi                             0.058904                            5   3
  514          fftbrc_mpi                            0.055084                          5   4
  515            fftbas_plan_mpi                       0.055068                        5   5
  516              dfftw_execute                         0.018137                     15   6
  517              map_backward                          0.012697                      4   6
  518                map_gather                            0.002319                    2   7
  519                m_alltoallv_z                         0.008862                    2   7
  520                map_scatter                           0.001468                    2   7
  521              map_forward                           0.020641                      6   6
  522                map_gather                            0.001386                    4   7
  523                m_alltoallv_z                         0.012637                    4   7
  524                map_scatter                           0.006545                    4   7
  525        m_sumb_d                              0.000539                            2   3
  526        fewald                                0.001273                            2   3
  527          rsp                                   0.001162                          2   4
  528          rcp                                   0.000098                          2   4
  529        pothar                                0.001840                            1   3
  530          m_sumb_d                              0.000437                          1   4
  531        m_bcast_d                             0.007569                            1   3
  532      potlok_metagga                        2.023190                              1   2
  533        fft3d_mpi                             0.216419                           17   3
  534          fftbrc_mpi                            0.203858                         17   4
  535            fftbas_plan_mpi                       0.203724                       17   5
  536              dfftw_execute                         0.053940                     51   6
  537              map_forward                           0.079479                     22   6
  538                map_gather                            0.005205                   13   7
  539                m_alltoallv_z                         0.056059                   13   7
  540                map_scatter                           0.017794                   13   7
  541              map_backward                          0.057571                     12   6
  542                map_gather                            0.006538                    6   7
  543                m_alltoallv_z                         0.047078                    6   7
  544                map_scatter                           0.003840                    6   7
  545        m_sumb_d                              0.001614                            3   3
  546        m_bcast_d                             0.014354                            2   3
  547      set_dd_magatom                        0.000001                              1   2
  548      set_dd_paw                            5.150860                              1   2
  549        set_rsgf_all                          0.000001                            1   3
  550        m_sumb_d                              5.150612                            7   3

 Flat profile

 set_kineden                           546.541452          64
 m_sumb_d                              329.911451       13337
 dfftw_execute                         325.892508      109122
 edwav                                 112.024163          44
 potlok_metagga                         92.516453          46
 set_charge                             65.687496          45
 map_scatter                            60.547572       36621
 total_time                             55.385873           1
 map_gather                             53.750611       36621
 m_alltoallv_z                          48.804276       36621
 fftwav_mpi                             36.499281       20055
 lincom                                 27.068233         139
 map_forward                            27.031789       41584
 kinhamil_tau                           22.647189        3615
 fftbas_plan_mpi                        21.601012       36374
 eddav                                  16.591882           5
 orth1                                  16.032695        3285
 m_alltoall_d                           13.608517       24009
 eccp_tau                                9.290506        2511
 fftext_mpi                              5.557542       15054
 ggemm                                   5.249304         618
 m_bcast_z                               5.049906        1374
 choleski                                4.521168          45
 lapack                                  3.915073         483
 vhamil                                  2.553506        1104
 eddiag                                  2.411389          23
 pw_charge                               2.174781        1035
 crrexp_mul_work_add                     2.163296      217554
 augmentation_charge                     1.966168          45
 rpro1                                   1.882802         942
 potxc_metagga                           1.806018           1
 crrexp_mul_wave                         1.718040      261186
 setdij_                                 1.627414          73
 racc0                                   1.240733         594
 fft3d_mpi                               1.197605       36374
 m_bcast_d                               1.195056        1109
 rspher_all                              1.086257          14
 gemm                                    1.006594       97566
 redis_pw                                0.958428        3867
 w1_dscal                                0.926148         594
 phaser                                  0.830142          40
 potlok                                  0.780544          46
 elmin_all                               0.571763           1
 fortau                                  0.563026           1
 forloc                                  0.557021           1
 forhar                                  0.556937           1
 racc0mu                                 0.374252         483
 rpromu_gemm                             0.371277       18382
 stufak                                  0.333446           1
 map_backward                            0.309329       31164
 stretau                                 0.241005           1
 w1_copy                                 0.162975        1449
 rpromu                                  0.151385          91
 soft_charge                             0.145123          45
 redis_proj                              0.129304        3944
 orthch                                  0.128659          45
 overl                                   0.123616        1515
 fftbas_mpi                              0.122609       35109
 pothar                                  0.068058          46
 rsp                                     0.061491          93
 apply_precond                           0.054580         348
 inisym                                  0.050615           1
 setup_precond                           0.050017         135
 fft_gq                                  0.034570          45
 depsum                                  0.026340          45
 overl1                                  0.022737         483
 force_and_stress                        0.016446           1
 set_dd_paw                              0.014340          47
 densta                                  0.013418          56
 strehar                                 0.012447           1
 hamiltmu_tau                            0.011489         483
 strelo                                  0.010837           1
 hamilt_local_tau                        0.008156         621
 newband                                 0.007153         488
 fewald                                  0.006903          93
 strnlr                                  0.006694           1
 rpro_isp                                0.006633          13
 strkin                                  0.005739           1
 raccmu_                                 0.005367         483
 rcp                                     0.004965          93
 fftbrc_mpi                              0.004204        1265
 fornlr                                  0.002377           1
 w1_projall                              0.001929         348
 posmap                                  0.001835           2
 brgrid                                  0.001363           1
 truncate_high_frequency_w1              0.000671         618
 fordep                                  0.000564           1
 redis_pw_all                            0.000354          44
 crpa_reader                             0.000297           1
 redis_pw_over_bands                     0.000180          45
 set_rsgf_all                            0.000168          47
 set_dd_magatom                          0.000052           2
 proall                                  0.000049           1
 vectorpot                               0.000029           1
 rotate_active_occupied_orbital          0.000019           1
 shift_bands_between_low_high            0.000009           1
  summed up times    1938.60569095612

 Accumulative profile

 total_time                           1938.605691           1
 elmin_all                            1806.842474           1
 set_kineden                           712.368526          64
 fft3d_mpi                             539.261516       36374
 fftbas_plan_mpi                       537.937098       36374
 fftbas_mpi                            515.121810       35109
 edwav                                 486.587080          44
 kinhamil_tau                          414.144851        3615
 fftwav_mpi                            342.995468       20055
 m_sumb_d                              329.911451       13337
 dfftw_execute                         325.892508      109122
 eccp_tau                              296.873387        2511
 set_dd_paw                            240.400644          47
 fftext_mpi                            214.330791       15054
 eddav                                 129.896515           5
 map_forward                           121.966644       41584
 potlok_metagga                        103.132469          46
 set_charge                             98.964604          45
 eddiag                                 86.651959          23
 hamilt_local_tau                       72.826330         621
 map_backward                           68.476934       31164
 force_and_stress                       62.546177           1
 map_scatter                            60.547572       36621
 hamiltmu_tau                           58.931020         483
 map_gather                             53.750611       36621
 m_alltoallv_z                          48.804276       36621
 stretau                                45.375656           1
 lincom                                 27.068233         139
 fftbrc_mpi                             22.942101        1265
 soft_charge                            21.652447          45
 orthch                                 21.191499          45
 newband                                18.684084         488
 orth1                                  16.032695        3285
 m_alltoall_d                           13.608517       24009
 redis_pw                                9.826473        3867
 rpro_isp                                7.052077          13
 strnlr                                  5.778920           1
 ggemm                                   5.249304         618
 m_bcast_z                               5.049906        1374
 redis_proj                              4.869776        3944
 choleski                                4.521168          45
 potlok                                  4.285556          46
 lapack                                  3.915073         483
 rpro1                                   3.348413         942
 augmentation_charge                     2.616896          45
 vhamil                                  2.553506        1104
 racc0                                   2.531034         594
 raccmu_                                 2.470426         483
 racc0mu                                 2.442322         483
 pw_charge                               2.174781        1035
 crrexp_mul_work_add                     2.163296      217554
 potxc_metagga                           1.956067           1
 fornlr                                  1.939746           1
 setdij_                                 1.886955          73
 crrexp_mul_wave                         1.718040      261186
 redis_pw_over_bands                     1.472588          45
 redis_pw_all                            1.472408          44
 w1_projall                              1.248215         348
 m_bcast_d                               1.195056        1109
 rspher_all                              1.086257          14
 rpromu                                  1.034637          91
 gemm                                    1.006594       97566
 w1_dscal                                0.926148         594
 phaser                                  0.830142          40
 proall                                  0.604026           1
 fortau                                  0.563280           1
 forloc                                  0.557252           1
 forhar                                  0.557128           1
 fft_gq                                  0.547026          45
 rpromu_gemm                             0.371277       18382
 stufak                                  0.333446           1
 depsum                                  0.329231          45
 w1_copy                                 0.162975        1449
 fordep                                  0.147337           1
 overl                                   0.123616        1515
 densta                                  0.100303          56
 pothar                                  0.089876          46
 fewald                                  0.079962          93
 rsp                                     0.061491          93
 setup_precond                           0.060496         135
 apply_precond                           0.054580         348
 inisym                                  0.052450           1
 overl1                                  0.022737         483
 strelo                                  0.013960           1
 strehar                                 0.012791           1
 strkin                                  0.011875           1
 rcp                                     0.004965          93
 posmap                                  0.001835           2
 brgrid                                  0.001363           1
 truncate_high_frequency_w1              0.000671         618
 crpa_reader                             0.000297           1
 set_rsgf_all                            0.000168          47
 set_dd_magatom                          0.000052           2
 vectorpot                               0.000029           1
 rotate_active_occupied_orbital          0.000019           1
 shift_bands_between_low_high            0.000009           1

Profiling took   0.899768  0.389352  0.007973  0.006558 seconds
Profiling took   1.171233 seconds