 vasp.6.3.2 27Jun22 (build Jan 05 2024 11:34:19) complex

 executed on           IFC15_impi date 2024.01.09  02:51:53

 INCAR:
   SYSTEM = MgO-rocksalt
   ISMEAR = 0
   SIGMA = 0.05
   EDIFF = 1E-6
   ALGO = ALL
   ISTART = 0
   IBRION = -1
   NSW = 0
   ISYM = 2
   DIPOL = 0.5 0.5 0.5
   IDIPOL = 3
   LDIPOL = .TRUE.
   METAGGA = M06L
   ENCUT = 520
   PREC = Accurate
   LASPH = .TRUE.
   LREAL = Auto
   ISPIN = 1
   NELM = 2000
   NELMIN = 8
   NCORE = 8
   LWAVE = .FALSE.
   LCHARG = .FALSE.

 POTCAR:    PAW_PBE Cu 22Jun2005
 POTCAR:    PAW_PBE Mg_pv 13Apr2007
 POTCAR:    PAW_PBE O 08Apr2002
 POTCAR:    PAW_PBE Cu 22Jun2005
   VRHFIN =Cu: d10 p1

   TITEL  = PAW_PBE Cu 22Jun2005
   POMASS =   63.546; ZVAL   =   11.000    mass and valenz
   ENMAX  =  295.446; ENMIN  =  221.585 eV

   TITEL  = PAW_PBE Mg_pv 13Apr2007
   POMASS =   24.305; ZVAL   =    8.000    mass and valenz
   ENMAX  =  403.929; ENMIN  =  302.947 eV

   TITEL  = PAW_PBE O 08Apr2002
   POMASS =   16.000; ZVAL   =    6.000    mass and valenz
   ENMAX  =  400.000; ENMIN  =  300.000 eV

 Optimization of the real space projectors (new method)

 maximal supplied QI-value         = 16.25
 optimisation between [QCUT,QGAM] = [ 11.54, 23.24] = [ 37.28,151.24] Ry
 Optimized for a Real-space Cutoff    1.53 Angstroem

   l    n(q)    QCUT    max X(q) W(low)/X(q) W(high)/X(q)  e(spline)
   2     10    11.539     4.610    0.96E-04    0.13E-03    0.19E-06
   2     10    11.539     8.522    0.16E-03    0.21E-03    0.28E-06
   0     11    11.539    51.609    0.45E-04    0.31E-04    0.11E-06
   0     11    11.539    27.747    0.39E-04    0.29E-04    0.10E-06
   1     10    11.539    20.408    0.70E-05    0.38E-04    0.18E-06
   1     10    11.539    13.425    0.66E-05    0.34E-04    0.17E-06
 Optimization of the real space projectors (new method)

[...]

   l    n(q)    QCUT    max X(q) W(low)/X(q) W(high)/X(q)  e(spline)
   1      8    11.527     2.974    0.44E-04    0.56E-04    0.12E-06
   1      8    11.527     4.279    0.12E-03    0.12E-03    0.26E-06
   0      9    11.527    16.381    0.46E-04    0.64E-04    0.78E-07
   0      9    11.527     5.611    0.26E-04    0.43E-04    0.55E-07
   2      8    11.527     4.652    0.22E-03    0.72E-04    0.47E-07
 Optimization of the real space projectors (new method)

 maximal supplied QI-value         = 24.76
 optimisation between [QCUT,QGAM] = [ 11.64, 23.27] = [ 37.91,151.63] Ry
 Optimized for a Real-space Cutoff    1.14 Angstroem

   l    n(q)    QCUT    max X(q) W(low)/X(q) W(high)/X(q)  e(spline)
   0      8    11.635    20.381    0.10E-03    0.33E-03    0.24E-06
   0      8    11.635    15.268    0.11E-03    0.35E-03    0.26E-06
   1      7    11.635     5.964    0.24E-03    0.31E-03    0.30E-06
   1      7    11.635     5.382    0.22E-03    0.25E-03    0.26E-06
  PAW_PBE Cu 22Jun2005                  :
  PAW_PBE Mg_pv 13Apr2007               :
  PAW_PBE O 08Apr2002                   :

 POSCAR: Cu Mg  O
  positions in direct lattice
  velocities in cartesian coordinates

 METAGGA = M06L     LMAXTAU =  6    LMIXTAU =  F

 VTST: version 4.1, (05/19/21)

 CHAIN: initializing optimizer

 OPT: Using VASP Dynamics algorithm
 CHAIN: Read ICHAIN            0

 POSCAR: Cu Mg  O
  positions in direct lattice
  velocities in cartesian coordinates

 ion  position               nearest neighbor table
   1  0.398  0.602  0.598- 157 2.11   2 2.32
   2  0.321  0.679  0.599- 138 2.22   1 2.32
   3  0.579  0.421  0.599- 173 2.22   4 2.32
   4  0.502  0.498  0.598- 154 2.11   3 2.32
   5  0.000  0.000  0.407- 107 2.11 108 2.11 123 2.11 188 2.11 105 2.11
   6  0.100  0.100  0.407- 107 2.11 108 2.11 112 2.11 127 2.11 106 2.11
   7  0.000  0.100  0.503- 105 2.11 106 2.11 109 2.11 186 2.11 107 2.11
   8  0.100  0.000  0.503- 105 2.11 106 2.11 122 2.11 125 2.11 108 2.11
   9  0.000  0.200  0.407- 111 2.11 107 2.11 112 2.11 192 2.11 109 2.11
  10  0.100  0.300  0.407- 112 2.11 111 2.11 116 2.11 131 2.11 110 2.11
  11  0.000  0.300  0.503- 109 2.11 110 2.11 113 2.11 190 2.11 111 2.11
  12  0.100  0.200  0.503- 110 2.11 109 2.11 106 2.11 129 2.11 112 2.11
  13  0.000  0.400  0.407- 111 2.11 115 2.11 116 2.11 196 2.11 113 2.11
  14  0.100  0.500  0.407- 115 2.11 116 2.11 120 2.11 135 2.11 114 2.11
  15  0.000  0.500  0.503- 113 2.11 114 2.11 117 2.11 194 2.11 115 2.11
  16  0.100  0.400  0.503- 110 2.11 113 2.11 114 2.11 133 2.11 116 2.11
  17  0.000  0.600  0.407- 115 2.11 119 2.11 120 2.11 200 2.11 117 2.11
  18  0.100  0.700  0.407- 124 2.11 120 2.11 119 2.11 139 2.11 118 2.11
  19  0.000  0.700  0.503- 121 2.11 118 2.11 117 2.11 198 2.11 119 2.11
  20  0.100  0.600  0.503- 114 2.11 117 2.11 118 2.11 137 2.11 120 2.11
  21  0.000  0.800  0.407- 119 2.11 123 2.11 124 2.11 204 2.11 121 2.11
  22  0.100  0.900  0.407- 108 2.11 123 2.11 124 2.11 143 2.11 122 2.11
  23  0.000  0.900  0.503- 105 2.11 121 2.11 122 2.11 202 2.11 123 2.11
  24  0.100  0.800  0.503- 118 2.11 121 2.11 122 2.11 141 2.11 124 2.11
  25  0.200  0.000  0.407- 128 2.11 127 2.11 108 2.11 143 2.11 125 2.11
  26  0.300  0.100  0.407- 127 2.11 128 2.11 132 2.11 147 2.11 126 2.11
  27  0.200  0.100  0.503- 126 2.11 125 2.11 106 2.11 129 2.11 127 2.11
  28  0.300  0.000  0.503- 125 2.11 126 2.11 142 2.11 145 2.11 128 2.11
  29  0.200  0.200  0.407- 131 2.11 132 2.11 112 2.11 127 2.11 129 2.11
  30  0.300  0.300  0.407- 131 2.11 132 2.11 136 2.11 151 2.11 130 2.11
  31  0.200  0.300  0.503- 129 2.11 130 2.11 110 2.11 133 2.11 131 2.11
  32  0.300  0.200  0.503- 129 2.11 130 2.11 126 2.11 149 2.11 132 2.11
  33  0.200  0.400  0.407- 136 2.11 131 2.11 135 2.11 116 2.11 133 2.11
  34  0.300  0.500  0.407- 135 2.11 136 2.11 140 2.11 155 2.11 134 2.11
  35  0.200  0.500  0.503- 134 2.11 133 2.11 114 2.11 137 2.11 135 2.11
  36  0.300  0.400  0.503- 133 2.11 130 2.11 134 2.11 153 2.11 136 2.11
  37  0.200  0.600  0.407- 140 2.11 135 2.11 139 2.11 120 2.11 137 2.11
  38  0.300  0.700  0.407- 139 2.11 144 2.11 140 2.11 159 2.11 138 2.11
  39  0.200  0.700  0.503- 138 2.11 141 2.11 118 2.11 137 2.11 139 2.11
  40  0.300  0.600  0.503- 137 2.11 134 2.11 138 2.11 157 2.11 140 2.11
  41  0.200  0.800  0.407- 139 2.11 144 2.11 143 2.11 124 2.11 141 2.11
  42  0.300  0.900  0.407- 143 2.11 128 2.11 144 2.11 163 2.11 142 2.11
  43  0.200  0.900  0.503- 142 2.11 125 2.11 141 2.11 122 2.11 143 2.11
  44  0.300  0.800  0.503- 138 2.11 141 2.11 142 2.11 161 2.11 144 2.11
  45  0.400  0.000  0.407- 128 2.11 147 2.11 148 2.11 163 2.11 145 2.11
  46  0.500  0.100  0.407- 147 2.11 148 2.11 152 2.11 167 2.11 146 2.11
  47  0.400  0.100  0.503- 126 2.11 145 2.11 146 2.11 149 2.11 147 2.11
  48  0.500  0.000  0.503- 145 2.11 146 2.11 162 2.11 165 2.11 148 2.11
  49  0.400  0.200  0.407- 151 2.11 147 2.11 132 2.11 152 2.11 149 2.11
  50  0.500  0.300  0.407- 152 2.11 151 2.11 156 2.11 171 2.11 150 2.11
  51  0.400  0.300  0.503- 149 2.11 130 2.11 150 2.11 153 2.11 151 2.11
  52  0.500  0.200  0.503- 150 2.11 149 2.11 146 2.11 169 2.11 152 2.11
  53  0.400  0.400  0.407- 136 2.11 151 2.11 155 2.11 156 2.11 153 2.11
  54  0.500  0.500  0.407- 155 2.11 156 2.11 160 2.11 175 2.11 154 2.11
  55  0.400  0.500  0.503- 134 2.11 153 2.11 154 2.11 157 2.11 155 2.11
  56  0.500  0.400  0.503- 150 2.11 153 2.11 154 2.11 173 2.11 156 2.11
  57  0.400  0.600  0.407- 140 2.11 155 2.11 159 2.11 160 2.11 157 2.11
  58  0.500  0.700  0.407- 164 2.11 160 2.11 159 2.11 179 2.11 158 2.11
  59  0.400  0.700  0.503- 161 2.11 157 2.11 158 2.11 138 2.11 159 2.11
  60  0.500  0.600  0.503- 154 2.11 157 2.11 158 2.11 177 2.11 160 2.11
[...]
 190  0.900  0.300  0.503-  92 2.11  91 2.11  11 2.11  96 2.11  90 2.11
 191  0.800  0.300  0.407-  70 2.11  89 2.11  90 2.11  93 2.11  91 2.11
 192  0.900  0.200  0.407-  90 2.11  86 2.11  89 2.11   9 2.11  92 2.11
 193  0.800  0.400  0.503-  76 2.11  91 2.11  95 2.11  96 2.11  93 2.11
 194  0.900  0.500  0.503-  15 2.11  95 2.11  96 2.11 100 2.11  94 2.11
 195  0.800  0.500  0.407-  74 2.11  93 2.11  94 2.11  97 2.11  95 2.11
 196  0.900  0.400  0.407-  13 2.11  90 2.11  93 2.11  94 2.11  96 2.11
 197  0.800  0.600  0.503-  80 2.11  95 2.11  99 2.11 100 2.11  97 2.11
 198  0.900  0.700  0.503- 104 2.11  99 2.11 100 2.11  19 2.11  98 2.11
 199  0.800  0.700  0.407-  78 2.11 101 2.11  98 2.11  97 2.11  99 2.11
 200  0.900  0.600  0.407-  17 2.11  94 2.11  97 2.11  98 2.11 100 2.11
 201  0.800  0.800  0.503-  84 2.11  99 2.11 103 2.11 104 2.11 101 2.11
 202  0.900  0.900  0.503-  23 2.11  88 2.11 103 2.11 104 2.11 102 2.11
 203  0.800  0.900  0.407-  82 2.11  85 2.11 101 2.11 102 2.11 103 2.11
 204  0.900  0.800  0.407-  98 2.11  21 2.11 101 2.11 102 2.11 104 2.11

  LATTYP: Found a simple tetragonal cell.
 ALAT       =    21.1388521970
 C/A-ratio  =     1.0461251639

  Lattice vectors:

 A1 = (  21.1388521970,   0.0000000000,   0.0000000000)
 A2 = (   0.0000000000,  21.1388521970,   0.0000000000)
 A3 = (   0.0000000000,   0.0000000000,  22.1138852197)

Analysis of symmetry for initial positions (statically):
 Subroutine PRICEL returns:
 Original cell was already a primitive cell.

 Routine SETGRP: Setting up the symmetry group for a
 simple tetragonal supercell.

 Subroutine GETGRP returns: Found  2 space group operations
 (whereof  1 operations were pure point group operations)
 out of a pool of 16 trial point group operations.

The static configuration has the point symmetry C_1 .
 The point group associated with its full space group is C_1h.

Analysis of symmetry for dynamics (positions and initial velocities):
 Subroutine PRICEL returns:
 Original cell was already a primitive cell.

[...]

The dynamic configuration has the point symmetry C_1 .
 The point group associated with its full space group is C_1h.

Analysis of constrained symmetry for selective dynamics:
 Subroutine PRICEL returns:
 Original cell was already a primitive cell.

 Routine SETGRP: Setting up the symmetry group for a
 simple tetragonal supercell.

 Subroutine GETGRP returns: Found  2 space group operations
 (whereof  1 operations were pure point group operations)
 out of a pool of 16 trial point group operations.

The constrained configuration has the point symmetry C_1 .
 The point group associated with its full space group is C_1h.

 Subroutine INISYM returns: Found  2 space group operations
 (whereof  1 operations are pure point group operations),
 and found     1 'primitive' translations

                                     Primitive cell

  volume of cell :    9881.6133

  direct lattice vectors                    reciprocal lattice vectors
    21.138852197  0.000000000  0.000000000     0.047306258  0.000000000  0.000000000
     0.000000000 21.138852197  0.000000000     0.000000000  0.047306258  0.000000000
     0.000000000  0.000000000 22.113885220     0.000000000  0.000000000  0.045220457

  length of vectors
    21.138852197 21.138852197 22.113885220     0.047306258  0.047306258  0.045220457

  position of ions in fractional coordinates (direct lattice)
     0.398329241  0.601718395  0.597737471
     0.320617240  0.679428851  0.599224153
     0.579428377  0.420617713  0.599224153
     0.501717922  0.498329241  0.597737471
     0.000000000  0.000000000  0.406984115
[...]
  501                  m_alltoallv_z                         0.060733                  6   8
  502                  map_scatter                           0.003999                  6   8
  503          m_sumb_d                              0.000557                          3   4
  504        fortau                                0.558989                            1   3
  505          m_sumb_d                              0.000627                          1   4
  506        forhar                                0.552474                            1   3
  507          m_sumb_d                              0.000181                          1   4
  508        strehar                               0.019372                            1   3
  509          m_sumb_d                              0.006825                          1   4
  510        m_bcast_d                             0.000972                            2   3
  511      potlok                                0.084856                              1   2
  512        fft3d_mpi                             0.057737                            5   3
  513          fftbrc_mpi                            0.053522                          5   4
  514            fftbas_plan_mpi                       0.053504                        5   5
  515              dfftw_execute                         0.017535                     15   6
  516              map_backward                          0.013027                      4   6
  517                map_gather                            0.002232                    2   7
  518                m_alltoallv_z                         0.009466                    2   7
  519                map_scatter                           0.001285                    2   7
  520              map_forward                           0.019396                      6   6
  521                map_gather                            0.001307                    4   7
  522                m_alltoallv_z                         0.011599                    4   7
  523                map_scatter                           0.006418                    4   7
  524        m_sumb_d                              0.000511                            2   3
  525        fewald                                0.001300                            2   3
  526          rsp                                   0.001191                          2   4
  527          rcp                                   0.000093                          2   4
  528        pothar                                0.001798                            1   3
  529          m_sumb_d                              0.000319                          1   4
  530        m_bcast_d                             0.008657                            1   3
  531      potlok_metagga                        2.035371                              1   2
  532        fft3d_mpi                             0.227151                           17   3
  533          fftbrc_mpi                            0.214434                         17   4
  534            fftbas_plan_mpi                       0.214384                       17   5
  535              dfftw_execute                         0.054388                     51   6
  536              map_forward                           0.071072                     22   6
  537                map_gather                            0.004949                   13   7
  538                m_alltoallv_z                         0.051425                   13   7
  539                map_scatter                           0.014454                   13   7
  540              map_backward                          0.076309                     12   6
  541                map_gather                            0.006699                    6   7
  542                m_alltoallv_z                         0.065578                    6   7
  543                map_scatter                           0.003921                    6   7
  544        m_sumb_d                              0.000589                            3   3
  545        m_bcast_d                             0.013728                            2   3
  546      set_dd_magatom                        0.000001                              1   2
  547      set_dd_paw                            5.123706                              1   2
  548        set_rsgf_all                          0.000001                            1   3
  549        m_sumb_d                              5.123495                            7   3
  550      m_bcast_d                             0.000322                              2   2

 Flat profile

 set_kineden                           905.557170          74
 m_sumb_d                              398.905982       16032
 dfftw_execute                         396.277119      133740
 edwav                                 142.043843          54
 potlok_metagga                        111.885222          56
 set_charge                            108.277403          55
 map_scatter                            74.054985       44877
 map_gather                             65.438692       44877
 total_time                             54.857430           1
 m_alltoallv_z                          48.985520       44877
 fftwav_mpi                             42.818510       24435
 lincom                                 35.119201         169
 map_forward                            32.210473       50644
 kinhamil_tau                           27.462030        4466
 fftbas_plan_mpi                        26.523112       44580
 orth1                                  19.950385        3878
 eddav                                  19.060988           5
 m_alltoall_d                           19.038310       29778
 eccp_tau                               10.946876        3164
 fftext_mpi                              6.774211       18620
 choleski                                5.970366          55
 ggemm                                   5.838170         658
 m_bcast_z                               5.587210        1442
 lapack                                  4.259013         518
 vhamil                                  2.941086        1302
 eddiag                                  2.785378          28
 pw_charge                               2.587304        1265
 crrexp_mul_work_add                     2.541025      259896
 rpro1                                   2.261067        1134
 crrexp_mul_wave                         1.996027      305592
 potxc_metagga                           1.806872           1
 racc0                                   1.591998         756
 setdij_                                 1.496113          83
 fft3d_mpi                               1.420730       44580
 augmentation_charge                     1.413059          55
 m_bcast_d                               1.264860        1208
 rspher_all                              1.198671          14
 w1_dscal                                1.193595         756
 redis_pw                                1.165347        4642
 gemm                                    1.084527      105672
 phaser                                  0.946867          45
 potlok                                  0.792396          56
 fortau                                  0.558362           1
 forhar                                  0.552293           1
 forloc                                  0.548938           1
 elmin_all                               0.481107           1
 racc0mu                                 0.410718         518
 rpromu_gemm                             0.388582       18564
 map_backward                            0.370086       38516
 stufak                                  0.337872           1
 stretau                                 0.239655           1
 soft_charge                             0.180144          55
 w1_copy                                 0.176478        1554
 orthch                                  0.166828          55
 rpromu                                  0.160116          91
 fftbas_mpi                              0.156293       43055
 redis_proj                              0.155509        4670
 overl                                   0.149063        1762
 pothar                                  0.081243          56
 rsp                                     0.073184         113
 inisym                                  0.060125           1
 apply_precond                           0.054935         378
 setup_precond                           0.050376         140
 fft_gq                                  0.042054          55
 depsum                                  0.033914          55
 overl1                                  0.023538         518
 force_and_stress                        0.016059           1
 densta                                  0.015169          66
 set_dd_paw                              0.013507          57
 strehar                                 0.012547           1
 hamiltmu_tau                            0.012542         518
 strelo                                  0.010685           1
 hamilt_local_tau                        0.010142         784
 newband                                 0.007429         523
 rpro_isp                                0.007262          13
 strnlr                                  0.007044           1
 fewald                                  0.007027         113
 rcp                                     0.006122         113
 strkin                                  0.005919           1
 raccmu_                                 0.005717         518
 fftbrc_mpi                              0.005350        1525
 fornlr                                  0.002358           1
 w1_projall                              0.002219         378
 brgrid                                  0.001388           1
 truncate_high_frequency_w1              0.000661         658
 redis_pw_all                            0.000452          54
 fordep                                  0.000364           1
 posmap                                  0.000346           2
 crpa_reader                             0.000231           1
 redis_pw_over_bands                     0.000231          55
 set_rsgf_all                            0.000128          57
 proall                                  0.000061           1
 vectorpot                               0.000032           1
 rotate_active_occupied_orbital          0.000020           1
 set_dd_magatom                          0.000014           2
 shift_bands_between_low_high            0.000013           1
  summed up times    2603.93159508705

 Accumulative profile

 total_time                           2603.931595           1
 elmin_all                            2467.302268           1
 set_kineden                          1092.744332          74
 fft3d_mpi                             645.442359       44580
 fftbas_plan_mpi                       643.859986       44580
 fftbas_mpi                            624.701335       43055
 edwav                                 617.141193          54
 kinhamil_tau                          504.538502        4466
 fftwav_mpi                            412.675949       24435
 m_sumb_d                              398.905982       16032
 dfftw_execute                         396.277119      133740
 eccp_tau                              368.617994        3164
 set_dd_paw                            291.661588          57
 fftext_mpi                            261.795827       18620
 set_charge                            147.272135          55
 eddav                                 139.322164           5
 map_forward                           136.969627       50644
 potlok_metagga                        125.702424          56
 eddiag                                108.614877          28
 hamilt_local_tau                       90.541891         784
 map_backward                           84.090128       38516
 map_scatter                            74.054985       44877
 force_and_stress                       67.347637           1
 map_gather                             65.438692       44877
 hamiltmu_tau                           62.268750         518
 stretau                                49.863076           1
 m_alltoallv_z                          48.985520       44877
 lincom                                 35.119201         169
 orthch                                 27.566644          55
 soft_charge                            26.294887          55
 orth1                                  19.950385        3878
 fftbrc_mpi                             19.320294        1525
 m_alltoall_d                           19.038310       29778
 newband                                18.999865         523
 redis_pw                               14.087229        4642
 rpro_isp                                7.335415          13
 redis_proj                              6.271937        4670
 strnlr                                  6.056559           1
 choleski                                5.970366          55
 ggemm                                   5.838170         658
 m_bcast_z                               5.587210        1442
 potlok                                  4.818392          56
 rpro1                                   4.350009        1134
 lapack                                  4.259013         518
 racc0                                   3.237220         756
 vhamil                                  2.941086        1302
 raccmu_                                 2.645337         518
 racc0mu                                 2.616082         518
 pw_charge                               2.587304        1265
 crrexp_mul_work_add                     2.541025      259896
 augmentation_charge                     2.103664          55
 fornlr                                  2.032328           1
 crrexp_mul_wave                         1.996027      305592
 potxc_metagga                           1.992287           1
 redis_pw_over_bands                     1.893431          55
 redis_pw_all                            1.893200          54
 setdij_                                 1.807137          83
 w1_projall                              1.409580         378
 m_bcast_d                               1.264860        1208
 rspher_all                              1.198671          14
 w1_dscal                                1.193595         756
 rpromu                                  1.120678          91
 gemm                                    1.084527      105672
 phaser                                  0.946867          45
 fft_gq                                  0.680722          55
 proall                                  0.628762           1
 fortau                                  0.558989           1
 forloc                                  0.556738           1
 forhar                                  0.552474           1
 rpromu_gemm                             0.388582       18564
 stufak                                  0.337872           1
 depsum                                  0.191801          55
 w1_copy                                 0.176478        1554
 overl                                   0.149063        1762
 fordep                                  0.129524           1
 densta                                  0.120589          66
 pothar                                  0.113063          56
 fewald                                  0.093913         113
 rsp                                     0.073184         113
 inisym                                  0.060471           1
 setup_precond                           0.056859         140
 apply_precond                           0.054935         378
 overl1                                  0.023538         518
 strehar                                 0.019372           1
 strelo                                  0.011184           1
 strkin                                  0.011108           1
 rcp                                     0.006122         113
 brgrid                                  0.001388           1
 truncate_high_frequency_w1              0.000661         658
 posmap                                  0.000346           2
 crpa_reader                             0.000231           1
 set_rsgf_all                            0.000128          57
 vectorpot                               0.000032           1
 rotate_active_occupied_orbital          0.000020           1
 set_dd_magatom                          0.000014           2
 shift_bands_between_low_high            0.000013           1

Profiling took   1.057955  0.464641  0.007900  0.006698 seconds
Profiling took   1.397365 seconds