 vasp.6.3.2 27Jun22 (build Jan 05 2024 11:34:19) complex

 executed on           IFC15_impi date 2024.01.09  02:34:21

 INCAR:
   SYSTEM = MgO-rocksalt
   ISMEAR = 0
   SIGMA = 0.05
   EDIFF = 1E-6
   ALGO = ALL
   ISTART = 0
   IBRION = -1
   NSW = 0
   ISYM = 2
   DIPOL = 0.5 0.5 0.5
   IDIPOL = 3
   LDIPOL = .TRUE.
   METAGGA = M06L
   ENCUT = 520
   PREC = Accurate
   LASPH = .TRUE.
   LREAL = Auto
   ISPIN = 1
   NELM = 2000
   NELMIN = 8
   NCORE = 8
   LWAVE = .FALSE.
   LCHARG = .FALSE.

 POTCAR:    PAW_PBE Ag 02Apr2005
 POTCAR:    PAW_PBE Mg_pv 13Apr2007
 POTCAR:    PAW_PBE O 08Apr2002
 POTCAR:    PAW_PBE Ag 02Apr2005
   VRHFIN =Ag : s1 d10

   TITEL  = PAW_PBE Ag 02Apr2005
   POMASS =  107.868; ZVAL   =   11.000    mass and valenz
   ENMAX  =  249.844; ENMIN  =  187.383 eV

   TITEL  = PAW_PBE Mg_pv 13Apr2007
   POMASS =   24.305; ZVAL   =    8.000    mass and valenz
   ENMAX  =  403.929; ENMIN  =  302.947 eV

   TITEL  = PAW_PBE O 08Apr2002
   POMASS =   16.000; ZVAL   =    6.000    mass and valenz
   ENMAX  =  400.000; ENMIN  =  300.000 eV

 Optimization of the real space projectors (new method)

 maximal supplied QI-value         = 15.12
 optimisation between [QCUT,QGAM] = [ 11.64, 23.28] = [ 37.95,151.78] Ry
 Optimized for a Real-space Cutoff    1.45 Angstroem

   l    n(q)    QCUT    max X(q) W(low)/X(q) W(high)/X(q)  e(spline)
   2      9    11.641    53.897    0.22E-03    0.42E-04    0.28E-06
   2      9    11.641    52.416    0.23E-03    0.44E-04    0.29E-06
   0     10    11.641   122.045    0.51E-04    0.25E-04    0.16E-06
   0     10    11.641    73.629    0.49E-04    0.24E-04    0.16E-06
   1     10    11.641    15.255    0.99E-04    0.55E-04    0.11E-06
   1     10    11.641     9.562    0.81E-04    0.47E-04    0.95E-07
 Optimization of the real space projectors (new method)

[...]

   l    n(q)    QCUT    max X(q) W(low)/X(q) W(high)/X(q)  e(spline)
   1      8    11.527     2.974    0.44E-04    0.56E-04    0.12E-06
   1      8    11.527     4.279    0.12E-03    0.12E-03    0.26E-06
   0      9    11.527    16.381    0.46E-04    0.64E-04    0.78E-07
   0      9    11.527     5.611    0.26E-04    0.43E-04    0.55E-07
   2      8    11.527     4.652    0.22E-03    0.72E-04    0.47E-07
 Optimization of the real space projectors (new method)

 maximal supplied QI-value         = 24.76
 optimisation between [QCUT,QGAM] = [ 11.64, 23.27] = [ 37.91,151.63] Ry
 Optimized for a Real-space Cutoff    1.14 Angstroem

   l    n(q)    QCUT    max X(q) W(low)/X(q) W(high)/X(q)  e(spline)
   0      8    11.635    20.381    0.10E-03    0.33E-03    0.24E-06
   0      8    11.635    15.268    0.11E-03    0.35E-03    0.26E-06
   1      7    11.635     5.964    0.24E-03    0.31E-03    0.30E-06
   1      7    11.635     5.382    0.22E-03    0.25E-03    0.26E-06
  PAW_PBE Ag 02Apr2005                  :
  PAW_PBE Mg_pv 13Apr2007               :
  PAW_PBE O 08Apr2002                   :

 POSCAR: Ag Mg  O
  positions in direct lattice
  velocities in cartesian coordinates

 METAGGA = M06L     LMAXTAU =  6    LMIXTAU =  F

 VTST: version 4.1, (05/19/21)

 CHAIN: initializing optimizer

 OPT: Using VASP Dynamics algorithm
 CHAIN: Read ICHAIN            0

 POSCAR: Ag Mg  O
  positions in direct lattice
  velocities in cartesian coordinates

 ion  position               nearest neighbor table
   1  0.404  0.596  0.628-   2 2.63   4 2.74 157 2.77
   2  0.317  0.683  0.613- 138 2.50   1 2.63  59 3.04  40 3.04
   3  0.583  0.417  0.613- 173 2.50   4 2.63  75 3.04  56 3.04
   4  0.496  0.504  0.628-   3 2.63   1 2.74 154 2.77
   5  0.000  0.000  0.407- 107 2.11 108 2.11 123 2.11 188 2.11 105 2.11
   6  0.100  0.100  0.407- 107 2.11 108 2.11 112 2.11 127 2.11 106 2.11
   7  0.000  0.100  0.503- 105 2.11 106 2.11 109 2.11 186 2.11 107 2.11
   8  0.100  0.000  0.503- 105 2.11 106 2.11 122 2.11 125 2.11 108 2.11
   9  0.000  0.200  0.407- 111 2.11 107 2.11 112 2.11 192 2.11 109 2.11
  10  0.100  0.300  0.407- 112 2.11 111 2.11 116 2.11 131 2.11 110 2.11
  11  0.000  0.300  0.503- 109 2.11 110 2.11 113 2.11 190 2.11 111 2.11
  12  0.100  0.200  0.503- 110 2.11 109 2.11 106 2.11 129 2.11 112 2.11
  13  0.000  0.400  0.407- 111 2.11 115 2.11 116 2.11 196 2.11 113 2.11
  14  0.100  0.500  0.407- 115 2.11 116 2.11 120 2.11 135 2.11 114 2.11
  15  0.000  0.500  0.503- 113 2.11 114 2.11 117 2.11 194 2.11 115 2.11
  16  0.100  0.400  0.503- 110 2.11 113 2.11 114 2.11 133 2.11 116 2.11
  17  0.000  0.600  0.407- 115 2.11 119 2.11 120 2.11 200 2.11 117 2.11
  18  0.100  0.700  0.407- 124 2.11 120 2.11 119 2.11 139 2.11 118 2.11
  19  0.000  0.700  0.503- 121 2.11 118 2.11 117 2.11 198 2.11 119 2.11
  20  0.100  0.600  0.503- 114 2.11 117 2.11 118 2.11 137 2.11 120 2.11
  21  0.000  0.800  0.407- 119 2.11 123 2.11 124 2.11 204 2.11 121 2.11
  22  0.100  0.900  0.407- 108 2.11 123 2.11 124 2.11 143 2.11 122 2.11
  23  0.000  0.900  0.503- 105 2.11 121 2.11 122 2.11 202 2.11 123 2.11
  24  0.100  0.800  0.503- 118 2.11 121 2.11 122 2.11 141 2.11 124 2.11
  25  0.200  0.000  0.407- 128 2.11 127 2.11 108 2.11 143 2.11 125 2.11
  26  0.300  0.100  0.407- 127 2.11 128 2.11 132 2.11 147 2.11 126 2.11
  27  0.200  0.100  0.503- 126 2.11 125 2.11 106 2.11 129 2.11 127 2.11
  28  0.300  0.000  0.503- 125 2.11 126 2.11 142 2.11 145 2.11 128 2.11
  29  0.200  0.200  0.407- 131 2.11 132 2.11 112 2.11 127 2.11 129 2.11
  30  0.300  0.300  0.407- 131 2.11 132 2.11 136 2.11 151 2.11 130 2.11
  31  0.200  0.300  0.503- 129 2.11 130 2.11 110 2.11 133 2.11 131 2.11
  32  0.300  0.200  0.503- 129 2.11 130 2.11 126 2.11 149 2.11 132 2.11
  33  0.200  0.400  0.407- 136 2.11 131 2.11 135 2.11 116 2.11 133 2.11
  34  0.300  0.500  0.407- 135 2.11 136 2.11 140 2.11 155 2.11 134 2.11
  35  0.200  0.500  0.503- 134 2.11 133 2.11 114 2.11 137 2.11 135 2.11
  36  0.300  0.400  0.503- 133 2.11 130 2.11 134 2.11 153 2.11 136 2.11
  37  0.200  0.600  0.407- 140 2.11 135 2.11 139 2.11 120 2.11 137 2.11
  38  0.300  0.700  0.407- 139 2.11 144 2.11 140 2.11 159 2.11 138 2.11
  39  0.200  0.700  0.503- 138 2.11 141 2.11 118 2.11 137 2.11 139 2.11
  40  0.300  0.600  0.503- 137 2.11 134 2.11 138 2.11 157 2.11 140 2.11   2 3.04
  41  0.200  0.800  0.407- 139 2.11 144 2.11 143 2.11 124 2.11 141 2.11
  42  0.300  0.900  0.407- 143 2.11 128 2.11 144 2.11 163 2.11 142 2.11
  43  0.200  0.900  0.503- 142 2.11 125 2.11 141 2.11 122 2.11 143 2.11
  44  0.300  0.800  0.503- 138 2.11 141 2.11 142 2.11 161 2.11 144 2.11
  45  0.400  0.000  0.407- 128 2.11 147 2.11 148 2.11 163 2.11 145 2.11
  46  0.500  0.100  0.407- 147 2.11 148 2.11 152 2.11 167 2.11 146 2.11
  47  0.400  0.100  0.503- 126 2.11 145 2.11 146 2.11 149 2.11 147 2.11
  48  0.500  0.000  0.503- 145 2.11 146 2.11 162 2.11 165 2.11 148 2.11
  49  0.400  0.200  0.407- 151 2.11 147 2.11 132 2.11 152 2.11 149 2.11
  50  0.500  0.300  0.407- 152 2.11 151 2.11 156 2.11 171 2.11 150 2.11
  51  0.400  0.300  0.503- 149 2.11 130 2.11 150 2.11 153 2.11 151 2.11
  52  0.500  0.200  0.503- 150 2.11 149 2.11 146 2.11 169 2.11 152 2.11
  53  0.400  0.400  0.407- 136 2.11 151 2.11 155 2.11 156 2.11 153 2.11
  54  0.500  0.500  0.407- 155 2.11 156 2.11 160 2.11 175 2.11 154 2.11
  55  0.400  0.500  0.503- 134 2.11 153 2.11 154 2.11 157 2.11 155 2.11
  56  0.500  0.400  0.503- 150 2.11 153 2.11 154 2.11 173 2.11 156 2.11   3 3.04
  57  0.400  0.600  0.407- 140 2.11 155 2.11 159 2.11 160 2.11 157 2.11
  58  0.500  0.700  0.407- 164 2.11 160 2.11 159 2.11 179 2.11 158 2.11
  59  0.400  0.700  0.503- 161 2.11 157 2.11 158 2.11 138 2.11 159 2.11   2 3.04
  60  0.500  0.600  0.503- 154 2.11 157 2.11 158 2.11 177 2.11 160 2.11
[...]
 190  0.900  0.300  0.503-  92 2.11  91 2.11  11 2.11  96 2.11  90 2.11
 191  0.800  0.300  0.407-  70 2.11  89 2.11  90 2.11  93 2.11  91 2.11
 192  0.900  0.200  0.407-  90 2.11  86 2.11  89 2.11   9 2.11  92 2.11
 193  0.800  0.400  0.503-  76 2.11  91 2.11  95 2.11  96 2.11  93 2.11
 194  0.900  0.500  0.503-  15 2.11  95 2.11  96 2.11 100 2.11  94 2.11
 195  0.800  0.500  0.407-  74 2.11  93 2.11  94 2.11  97 2.11  95 2.11
 196  0.900  0.400  0.407-  13 2.11  90 2.11  93 2.11  94 2.11  96 2.11
 197  0.800  0.600  0.503-  80 2.11  95 2.11  99 2.11 100 2.11  97 2.11
 198  0.900  0.700  0.503- 104 2.11  99 2.11 100 2.11  19 2.11  98 2.11
 199  0.800  0.700  0.407-  78 2.11 101 2.11  98 2.11  97 2.11  99 2.11
 200  0.900  0.600  0.407-  17 2.11  94 2.11  97 2.11  98 2.11 100 2.11
 201  0.800  0.800  0.503-  84 2.11  99 2.11 103 2.11 104 2.11 101 2.11
 202  0.900  0.900  0.503-  23 2.11  88 2.11 103 2.11 104 2.11 102 2.11
 203  0.800  0.900  0.407-  82 2.11  85 2.11 101 2.11 102 2.11 103 2.11
 204  0.900  0.800  0.407-  98 2.11  21 2.11 101 2.11 102 2.11 104 2.11

  LATTYP: Found a simple tetragonal cell.
 ALAT       =    21.1388521970
 C/A-ratio  =     1.0461251639

  Lattice vectors:

 A1 = (  21.1388521970,   0.0000000000,   0.0000000000)
 A2 = (   0.0000000000,  21.1388521970,   0.0000000000)
 A3 = (   0.0000000000,   0.0000000000,  22.1138852197)

Analysis of symmetry for initial positions (statically):
 Subroutine PRICEL returns:
 Original cell was already a primitive cell.

 Routine SETGRP: Setting up the symmetry group for a
 simple tetragonal supercell.

 Subroutine GETGRP returns: Found  2 space group operations
 (whereof  1 operations were pure point group operations)
 out of a pool of 16 trial point group operations.

The static configuration has the point symmetry C_1 .
 The point group associated with its full space group is C_1h.

Analysis of symmetry for dynamics (positions and initial velocities):
 Subroutine PRICEL returns:
 Original cell was already a primitive cell.

[...]

The dynamic configuration has the point symmetry C_1 .
 The point group associated with its full space group is C_1h.

Analysis of constrained symmetry for selective dynamics:
 Subroutine PRICEL returns:
 Original cell was already a primitive cell.

 Routine SETGRP: Setting up the symmetry group for a
 simple tetragonal supercell.

 Subroutine GETGRP returns: Found  2 space group operations
 (whereof  1 operations were pure point group operations)
 out of a pool of 16 trial point group operations.

The constrained configuration has the point symmetry C_1 .
 The point group associated with its full space group is C_1h.

 Subroutine INISYM returns: Found  2 space group operations
 (whereof  1 operations are pure point group operations),
 and found     1 'primitive' translations

                                     Primitive cell

  volume of cell :    9881.6133

  direct lattice vectors                    reciprocal lattice vectors
    21.138852197  0.000000000  0.000000000     0.047306258  0.000000000  0.000000000
     0.000000000 21.138852197  0.000000000     0.000000000  0.047306258  0.000000000
     0.000000000  0.000000000 22.113885220     0.000000000  0.000000000  0.045220457

  length of vectors
    21.138852197 21.138852197 22.113885220     0.047306258  0.047306258  0.045220457

  position of ions in fractional coordinates (direct lattice)
     0.404209587  0.595838152  0.627872356
     0.316904301  0.683142271  0.613368187
     0.583141798  0.416904774  0.613368187
[...]
  501                  m_alltoallv_z                         0.052083                  6   8
  502                  map_scatter                           0.004284                  6   8
  503          m_sumb_d                              0.000762                          3   4
  504        fortau                                0.561429                            1   3
  505          m_sumb_d                              0.002847                          1   4
  506        forhar                                0.551015                            1   3
  507          m_sumb_d                              0.000234                          1   4
  508        strehar                               0.019801                            1   3
  509          m_sumb_d                              0.007246                          1   4
  510        m_bcast_d                             0.000789                            2   3
  511      potlok                                0.087571                              1   2
  512        fft3d_mpi                             0.060256                            5   3
  513          fftbrc_mpi                            0.056188                          5   4
  514            fftbas_plan_mpi                       0.056174                        5   5
  515              dfftw_execute                         0.017827                     15   6
  516              map_backward                          0.013001                      4   6
  517                map_gather                            0.002271                    2   7
  518                m_alltoallv_z                         0.009323                    2   7
  519                map_scatter                           0.001357                    2   7
  520              map_forward                           0.021379                      6   6
  521                map_gather                            0.001374                    4   7
  522                m_alltoallv_z                         0.013495                    4   7
  523                map_scatter                           0.006438                    4   7
  524        m_sumb_d                              0.000539                            2   3
  525        fewald                                0.001303                            2   3
  526          rsp                                   0.001196                          2   4
  527          rcp                                   0.000093                          2   4
  528        pothar                                0.002058                            1   3
  529          m_sumb_d                              0.000579                          1   4
  530        m_bcast_d                             0.007006                            1   3
  531      potlok_metagga                        2.040212                              1   2
  532        fft3d_mpi                             0.231828                           17   3
  533          fftbrc_mpi                            0.219429                         17   4
  534            fftbas_plan_mpi                       0.219373                       17   5
  535              dfftw_execute                         0.053695                     51   6
  536              map_forward                           0.074462                     22   6
  537                map_gather                            0.005410                   13   7
  538                m_alltoallv_z                         0.050844                   13   7
  539                map_scatter                           0.017972                   13   7
  540              map_backward                          0.078382                     12   6
  541                map_gather                            0.006731                    6   7
  542                m_alltoallv_z                         0.067480                    6   7
  543                map_scatter                           0.004046                    6   7
  544        m_sumb_d                              0.001681                            3   3
  545        m_bcast_d                             0.012417                            2   3
  546      set_dd_magatom                        0.000001                              1   2
  547      set_dd_paw                            4.952773                              1   2
  548        set_rsgf_all                          0.000002                            1   3
  549        m_sumb_d                              4.952507                            7   3
  550      m_bcast_d                             0.000287                              2   2

 Flat profile

 set_kineden                           744.048319          64
 dfftw_execute                         335.171556      112911
 m_sumb_d                              320.567354       13766
 edwav                                 116.506942          44
 potlok_metagga                         92.468666          46
 set_charge                             88.694233          45
 map_scatter                            62.673871       37884
 map_gather                             55.338630       37884
 total_time                             54.976258           1
 m_alltoallv_z                          50.276455       37884
 fftwav_mpi                             37.326317       20760
 lincom                                 28.947221         139
 map_forward                            27.624102       42994
 kinhamil_tau                           23.605278        3749
 fftbas_plan_mpi                        22.507740       37637
 eddav                                  19.187244           5
 orth1                                  17.285311        3407
 m_alltoall_d                           12.539095       24899
 eccp_tau                                9.339114        2604
 fftext_mpi                              5.734464       15612
 ggemm                                   5.604699         641
 m_bcast_z                               5.042262        1425
 choleski                                4.903949          45
 lapack                                  3.978329         501
 eddiag                                  2.761745          23
 vhamil                                  2.667003        1145
 crrexp_mul_work_add                     2.267388      227868
 pw_charge                               2.182966        1035
 rpro1                                   1.982117         977
 crrexp_mul_wave                         1.813210      273564
 potxc_metagga                           1.808658           1
 setdij_                                 1.648519          73
 augmentation_charge                     1.539770          45
 racc0                                   1.342203         616
 fft3d_mpi                               1.180335       37637
 rspher_all                              1.066813          14
 gemm                                    1.064417      102204
 m_bcast_d                               1.037400        1144
 w1_dscal                                1.016130         616
 redis_pw                                0.979739        4006
 phaser                                  0.834285          40
 potlok                                  0.776983          46
 fortau                                  0.558582           1
 forloc                                  0.554292           1
 forhar                                  0.550781           1
 rpromu_gemm                             0.396308       18564
 racc0mu                                 0.393989         501
 elmin_all                               0.392178           1
 stufak                                  0.335654           1
 map_backward                            0.317408       32280
 stretau                                 0.239979           1
 w1_copy                                 0.167480        1503
 rpromu                                  0.157441          91
 soft_charge                             0.150079          45
 fftbas_mpi                              0.133394       36372
 redis_proj                              0.131633        4072
 overl                                   0.129930        1568
 orthch                                  0.126487          45
 pothar                                  0.068200          46
 inisym                                  0.061110           1
 rsp                                     0.060759          93
 apply_precond                           0.053968         361
 setup_precond                           0.051887         140
 fft_gq                                  0.033818          45
 depsum                                  0.027586          45
 overl1                                  0.022381         501
 force_and_stress                        0.015802           1
 densta                                  0.013587          56
 strehar                                 0.012555           1
 hamiltmu_tau                            0.012546         501
 set_dd_paw                              0.010751          47
 strelo                                  0.010622           1
 hamilt_local_tau                        0.008217         644
 newband                                 0.007736         506
 strnlr                                  0.007612           1
 fewald                                  0.006946          93
 rpro_isp                                0.006621          13
 strkin                                  0.005858           1
 raccmu_                                 0.005647         501
 rcp                                     0.004994          93
 fftbrc_mpi                              0.004286        1265
 fornlr                                  0.002238           1
 w1_projall                              0.002130         361
 brgrid                                  0.001359           1
 truncate_high_frequency_w1              0.000746         641
 posmap                                  0.000397           2
 redis_pw_all                            0.000363          44
 fordep                                  0.000355           1
 crpa_reader                             0.000230           1
 redis_pw_over_bands                     0.000187          45
 set_rsgf_all                            0.000104          47
 proall                                  0.000055           1
 vectorpot                               0.000029           1
 rotate_active_occupied_orbital          0.000019           1
 set_dd_magatom                          0.000012           2
 shift_bands_between_low_high            0.000010           1
  summed up times    2177.57443499565

 Accumulative profile

 total_time                           2177.574435           1
 elmin_all                            2041.479285           1
 set_kineden                           906.048949          64
 fft3d_mpi                             555.227779       37637
 fftbas_plan_mpi                       553.909764       37637
 fftbas_mpi                            532.778381       36372
 edwav                                 504.596578          44
 kinhamil_tau                          428.515498        3749
 fftwav_mpi                            354.059819       20760
 dfftw_execute                         335.171556      112911
 m_sumb_d                              320.567354       13766
 eccp_tau                              307.120188        2604
 set_dd_paw                            235.983162          47
 fftext_mpi                            221.932847       15612
 eddav                                 136.083460           5
 map_forward                           123.881191       42994
 set_charge                            120.883032          45
 potlok_metagga                        103.786788          46
 eddiag                                 89.939840          23
 hamilt_local_tau                       75.298404         644
 map_backward                           72.349276       32280
 force_and_stress                       67.399002           1
 map_scatter                            62.673871       37884
 hamiltmu_tau                           61.071404         501
 map_gather                             55.338630       37884
 m_alltoallv_z                          50.276455       37884
 stretau                                50.026364           1
 lincom                                 28.947221         139
 orthch                                 22.451616          45
 soft_charge                            21.602876          45
 fftbrc_mpi                             21.269063        1265
 newband                                19.225848         506
 orth1                                  17.285311        3407
 m_alltoall_d                           12.539095       24899
 redis_pw                                9.218839        4006
 rpro_isp                                7.396459          13
 strnlr                                  5.982101           1
 ggemm                                   5.604699         641
 m_bcast_z                               5.042262        1425
 choleski                                4.903949          45
 redis_proj                              4.431628        4072
 potlok                                  4.093249          46
 lapack                                  3.978329         501
 rpro1                                   3.607022         977
 racc0                                   2.759172         616
 vhamil                                  2.667003        1145
 raccmu_                                 2.611412         501
 racc0mu                                 2.583385         501
 crrexp_mul_work_add                     2.267388      227868
 pw_charge                               2.182966        1035
 augmentation_charge                     2.096853          45
 fornlr                                  2.008743           1
 potxc_metagga                           1.986132           1
 setdij_                                 1.937460          73
 crrexp_mul_wave                         1.813210      273564
 redis_pw_over_bands                     1.542084          45
 redis_pw_all                            1.541897          44
 w1_projall                              1.351665         361
 rpromu                                  1.128105          91
 rspher_all                              1.066813          14
 gemm                                    1.064417      102204
 m_bcast_d                               1.037400        1144
 w1_dscal                                1.016130         616
 phaser                                  0.834285          40
 proall                                  0.635261           1
 fft_gq                                  0.563263          45
 fortau                                  0.561429           1
 forloc                                  0.554468           1
 forhar                                  0.551015           1
 rpromu_gemm                             0.396308       18564
 stufak                                  0.335654           1
 depsum                                  0.215309          45
 w1_copy                                 0.167480        1503
 fordep                                  0.149849           1
 overl                                   0.129930        1568
 densta                                  0.128264          56
 pothar                                  0.084981          46
 fewald                                  0.079117          93
 inisym                                  0.061507           1
 setup_precond                           0.060968         140
 rsp                                     0.060759          93
 apply_precond                           0.053968         361
 overl1                                  0.022381         501
 strehar                                 0.019801           1
 strelo                                  0.011202           1
 strkin                                  0.006258           1
 rcp                                     0.004994          93
 brgrid                                  0.001359           1
 truncate_high_frequency_w1              0.000746         641
 posmap                                  0.000397           2
 crpa_reader                             0.000230           1
 set_rsgf_all                            0.000104          47
 vectorpot                               0.000029           1
 rotate_active_occupied_orbital          0.000019           1
 set_dd_magatom                          0.000012           2
 shift_bands_between_low_high            0.000010           1

Profiling took   0.924148  0.409416  0.008156  0.006853 seconds
Profiling took   1.216172 seconds