 vasp.6.3.2 27Jun22 (build Jan 05 2024 11:34:19) complex

 executed on           IFC15_impi date 2024.01.09  00:44:08

 INCAR:
   SYSTEM = MgO-rocksalt
   ISMEAR = 0
   SIGMA = 0.05
   EDIFF = 1E-6
   ALGO = ALL
   ISTART = 0
   IBRION = -1
   NSW = 0
   ISYM = 2
   DIPOL = 0.5 0.5 0.5
   IDIPOL = 3
   LDIPOL = .TRUE.
   METAGGA = M06L
   ENCUT = 520
   PREC = Accurate
   LASPH = .TRUE.
   LREAL = Auto
   ISPIN = 1
   NELM = 2000
   NELMIN = 8
   NCORE = 8
   LWAVE = .FALSE.
   LCHARG = .FALSE.

 POTCAR:    PAW_PBE Cu 22Jun2005
 POTCAR:    PAW_PBE Mg_pv 13Apr2007
 POTCAR:    PAW_PBE O 08Apr2002
 POTCAR:    PAW_PBE Cu 22Jun2005
   VRHFIN =Cu: d10 p1

   TITEL  = PAW_PBE Cu 22Jun2005
   POMASS =   63.546; ZVAL   =   11.000    mass and valenz
   ENMAX  =  295.446; ENMIN  =  221.585 eV

   TITEL  = PAW_PBE Mg_pv 13Apr2007
   POMASS =   24.305; ZVAL   =    8.000    mass and valenz
   ENMAX  =  403.929; ENMIN  =  302.947 eV

   TITEL  = PAW_PBE O 08Apr2002
   POMASS =   16.000; ZVAL   =    6.000    mass and valenz
   ENMAX  =  400.000; ENMIN  =  300.000 eV

 Optimization of the real space projectors (new method)

 maximal supplied QI-value         = 16.25
 optimisation between [QCUT,QGAM] = [ 11.54, 23.24] = [ 37.28,151.24] Ry
 Optimized for a Real-space Cutoff    1.53 Angstroem

   l    n(q)    QCUT    max X(q) W(low)/X(q) W(high)/X(q)  e(spline)
   2     10    11.539     4.610    0.96E-04    0.13E-03    0.19E-06
   2     10    11.539     8.522    0.16E-03    0.21E-03    0.28E-06
   0     11    11.539    51.609    0.45E-04    0.31E-04    0.11E-06
   0     11    11.539    27.747    0.39E-04    0.29E-04    0.10E-06
   1     10    11.539    20.408    0.70E-05    0.38E-04    0.18E-06
   1     10    11.539    13.425    0.66E-05    0.34E-04    0.17E-06
 Optimization of the real space projectors (new method)

[...]

   l    n(q)    QCUT    max X(q) W(low)/X(q) W(high)/X(q)  e(spline)
   1      8    11.527     2.974    0.44E-04    0.56E-04    0.12E-06
   1      8    11.527     4.279    0.12E-03    0.12E-03    0.26E-06
   0      9    11.527    16.381    0.46E-04    0.64E-04    0.78E-07
   0      9    11.527     5.611    0.26E-04    0.43E-04    0.55E-07
   2      8    11.527     4.652    0.22E-03    0.72E-04    0.47E-07
 Optimization of the real space projectors (new method)

 maximal supplied QI-value         = 24.76
 optimisation between [QCUT,QGAM] = [ 11.64, 23.27] = [ 37.91,151.63] Ry
 Optimized for a Real-space Cutoff    1.14 Angstroem

   l    n(q)    QCUT    max X(q) W(low)/X(q) W(high)/X(q)  e(spline)
   0      8    11.635    20.381    0.10E-03    0.33E-03    0.24E-06
   0      8    11.635    15.268    0.11E-03    0.35E-03    0.26E-06
   1      7    11.635     5.964    0.24E-03    0.31E-03    0.30E-06
   1      7    11.635     5.382    0.22E-03    0.25E-03    0.26E-06
  PAW_PBE Cu 22Jun2005                  :
  PAW_PBE Mg_pv 13Apr2007               :
  PAW_PBE O 08Apr2002                   :

 POSCAR: Cu Mg  O
  positions in direct lattice

 METAGGA = M06L     LMAXTAU =  6    LMIXTAU =  F

 VTST: version 4.1, (05/19/21)

 CHAIN: initializing optimizer

 OPT: Using VASP Dynamics algorithm
 CHAIN: Read ICHAIN            0

 POSCAR: Cu Mg  O
  positions in direct lattice

 ion  position               nearest neighbor table
   1  0.450  0.450  0.699-   2 2.23
   2  0.450  0.450  0.598-   1 2.23  53 2.59  54 2.59
   3  0.000  0.000  0.407- 105 2.11 106 2.11 121 2.11 186 2.11 103 2.11
   4  0.100  0.100  0.407- 105 2.11 106 2.11 110 2.11 125 2.11 104 2.11
   5  0.000  0.100  0.503- 103 2.11 104 2.11 107 2.11 184 2.11 105 2.11
   6  0.100  0.000  0.503- 103 2.11 104 2.11 120 2.11 123 2.11 106 2.11
   7  0.000  0.200  0.407- 109 2.11 105 2.11 110 2.11 190 2.11 107 2.11
   8  0.100  0.300  0.407- 110 2.11 109 2.11 114 2.11 129 2.11 108 2.11
   9  0.000  0.300  0.503- 107 2.11 108 2.11 111 2.11 188 2.11 109 2.11
  10  0.100  0.200  0.503- 108 2.11 107 2.11 104 2.11 127 2.11 110 2.11
  11  0.000  0.400  0.407- 109 2.11 113 2.11 114 2.11 194 2.11 111 2.11
  12  0.100  0.500  0.407- 113 2.11 114 2.11 118 2.11 133 2.11 112 2.11
  13  0.000  0.500  0.503- 111 2.11 112 2.11 115 2.11 192 2.11 113 2.11
  14  0.100  0.400  0.503- 108 2.11 111 2.11 112 2.11 131 2.11 114 2.11
  15  0.000  0.600  0.407- 113 2.11 117 2.11 118 2.11 198 2.11 115 2.11
  16  0.100  0.700  0.407- 122 2.11 118 2.11 117 2.11 137 2.11 116 2.11
  17  0.000  0.700  0.503- 119 2.11 116 2.11 115 2.11 196 2.11 117 2.11
  18  0.100  0.600  0.503- 112 2.11 115 2.11 116 2.11 135 2.11 118 2.11
  19  0.000  0.800  0.407- 117 2.11 121 2.11 122 2.11 202 2.11 119 2.11
  20  0.100  0.900  0.407- 106 2.11 121 2.11 122 2.11 141 2.11 120 2.11
  21  0.000  0.900  0.503- 103 2.11 119 2.11 120 2.11 200 2.11 121 2.11
  22  0.100  0.800  0.503- 116 2.11 119 2.11 120 2.11 139 2.11 122 2.11
  23  0.200  0.000  0.407- 126 2.11 125 2.11 106 2.11 141 2.11 123 2.11
  24  0.300  0.100  0.407- 125 2.11 126 2.11 130 2.11 145 2.11 124 2.11
  25  0.200  0.100  0.503- 124 2.11 123 2.11 104 2.11 127 2.11 125 2.11
  26  0.300  0.000  0.503- 123 2.11 124 2.11 140 2.11 143 2.11 126 2.11
  27  0.200  0.200  0.407- 129 2.11 130 2.11 110 2.11 125 2.11 127 2.11
  28  0.300  0.300  0.407- 129 2.11 130 2.11 134 2.11 149 2.11 128 2.11
  29  0.200  0.300  0.503- 127 2.11 128 2.11 108 2.11 131 2.11 129 2.11
  30  0.300  0.200  0.503- 127 2.11 128 2.11 124 2.11 147 2.11 130 2.11
  31  0.200  0.400  0.407- 134 2.11 129 2.11 133 2.11 114 2.11 131 2.11
  32  0.300  0.500  0.407- 133 2.11 134 2.11 138 2.11 153 2.11 132 2.11
  33  0.200  0.500  0.503- 132 2.11 131 2.11 112 2.11 135 2.11 133 2.11
  34  0.300  0.400  0.503- 131 2.11 128 2.11 132 2.11 151 2.11 134 2.11
  35  0.200  0.600  0.407- 138 2.11 133 2.11 137 2.11 118 2.11 135 2.11
  36  0.300  0.700  0.407- 137 2.11 142 2.11 138 2.11 157 2.11 136 2.11
  37  0.200  0.700  0.503- 136 2.11 139 2.11 116 2.11 135 2.11 137 2.11
  38  0.300  0.600  0.503- 135 2.11 132 2.11 136 2.11 155 2.11 138 2.11
  39  0.200  0.800  0.407- 137 2.11 142 2.11 141 2.11 122 2.11 139 2.11
  40  0.300  0.900  0.407- 141 2.11 126 2.11 142 2.11 161 2.11 140 2.11
  41  0.200  0.900  0.503- 140 2.11 123 2.11 139 2.11 120 2.11 141 2.11
  42  0.300  0.800  0.503- 136 2.11 139 2.11 140 2.11 159 2.11 142 2.11
  43  0.400  0.000  0.407- 126 2.11 145 2.11 146 2.11 161 2.11 143 2.11
  44  0.500  0.100  0.407- 145 2.11 146 2.11 150 2.11 165 2.11 144 2.11
  45  0.400  0.100  0.503- 124 2.11 143 2.11 144 2.11 147 2.11 145 2.11
  46  0.500  0.000  0.503- 143 2.11 144 2.11 160 2.11 163 2.11 146 2.11
  47  0.400  0.200  0.407- 149 2.11 145 2.11 130 2.11 150 2.11 147 2.11
  48  0.500  0.300  0.407- 150 2.11 149 2.11 154 2.11 169 2.11 148 2.11
  49  0.400  0.300  0.503- 147 2.11 128 2.11 148 2.11 151 2.11 149 2.11
  50  0.500  0.200  0.503- 148 2.11 147 2.11 144 2.11 167 2.11 150 2.11
  51  0.400  0.400  0.407- 134 2.11 149 2.11 153 2.11 154 2.11 151 2.11
  52  0.500  0.500  0.407- 153 2.11 154 2.11 158 2.11 173 2.11 152 2.11
  53  0.400  0.500  0.503- 132 2.11 151 2.11 152 2.11 155 2.11 153 2.11   2 2.59
  54  0.500  0.400  0.503- 148 2.11 151 2.11 152 2.11 171 2.11 154 2.11   2 2.59
  55  0.400  0.600  0.407- 138 2.11 153 2.11 157 2.11 158 2.11 155 2.11
  56  0.500  0.700  0.407- 162 2.11 158 2.11 157 2.11 177 2.11 156 2.11
  57  0.400  0.700  0.503- 159 2.11 155 2.11 156 2.11 136 2.11 157 2.11
  58  0.500  0.600  0.503- 152 2.11 155 2.11 156 2.11 175 2.11 158 2.11
  59  0.400  0.800  0.407- 157 2.11 142 2.11 161 2.11 162 2.11 159 2.11
  60  0.500  0.900  0.407- 146 2.11 161 2.11 162 2.11 181 2.11 160 2.11
[...]
 188  0.900  0.300  0.503-  90 2.11  89 2.11   9 2.11  94 2.11  88 2.11
 189  0.800  0.300  0.407-  68 2.11  87 2.11  88 2.11  91 2.11  89 2.11
 190  0.900  0.200  0.407-  88 2.11  84 2.11  87 2.11   7 2.11  90 2.11
 191  0.800  0.400  0.503-  74 2.11  89 2.11  93 2.11  94 2.11  91 2.11
 192  0.900  0.500  0.503-  13 2.11  93 2.11  94 2.11  98 2.11  92 2.11
 193  0.800  0.500  0.407-  72 2.11  91 2.11  92 2.11  95 2.11  93 2.11
 194  0.900  0.400  0.407-  11 2.11  88 2.11  91 2.11  92 2.11  94 2.11
 195  0.800  0.600  0.503-  78 2.11  93 2.11  97 2.11  98 2.11  95 2.11
 196  0.900  0.700  0.503- 102 2.11  97 2.11  98 2.11  17 2.11  96 2.11
 197  0.800  0.700  0.407-  76 2.11  99 2.11  96 2.11  95 2.11  97 2.11
 198  0.900  0.600  0.407-  15 2.11  92 2.11  95 2.11  96 2.11  98 2.11
 199  0.800  0.800  0.503-  82 2.11  97 2.11 101 2.11 102 2.11  99 2.11
 200  0.900  0.900  0.503-  21 2.11  86 2.11 101 2.11 102 2.11 100 2.11
 201  0.800  0.900  0.407-  80 2.11  83 2.11  99 2.11 100 2.11 101 2.11
 202  0.900  0.800  0.407-  96 2.11  19 2.11  99 2.11 100 2.11 102 2.11

  LATTYP: Found a simple tetragonal cell.
 ALAT       =    21.1388521970
 C/A-ratio  =     1.0461251639

  Lattice vectors:

 A1 = (  21.1388521970,   0.0000000000,   0.0000000000)
 A2 = (   0.0000000000,  21.1388521970,   0.0000000000)
 A3 = (   0.0000000000,   0.0000000000,  22.1138852197)

Analysis of symmetry for initial positions (statically):
 Subroutine PRICEL returns:
 Original cell was already a primitive cell.

 Routine SETGRP: Setting up the symmetry group for a
 simple tetragonal supercell.

 Subroutine GETGRP returns: Found  4 space group operations
 (whereof  2 operations were pure point group operations)
 out of a pool of 16 trial point group operations.

The static configuration has the point symmetry C_1h.
 The point group associated with its full space group is C_2v.

Analysis of symmetry for dynamics (positions and initial velocities):
 Subroutine PRICEL returns:
 Original cell was already a primitive cell.

 Routine SETGRP: Setting up the symmetry group for a
 simple tetragonal supercell.

 Subroutine GETGRP returns: Found  4 space group operations
 (whereof  2 operations were pure point group operations)
 out of a pool of 16 trial point group operations.

The dynamic configuration has the point symmetry C_1h.
 The point group associated with its full space group is C_2v.

 Subroutine INISYM returns: Found  4 space group operations
 (whereof  2 operations are pure point group operations),
 and found     1 'primitive' translations

                                     Primitive cell

  volume of cell :    9881.6133

  direct lattice vectors                    reciprocal lattice vectors
    21.138852197  0.000000000  0.000000000     0.047306258  0.000000000  0.000000000
     0.000000000 21.138852197  0.000000000     0.000000000  0.047306258  0.000000000
     0.000000000  0.000000000 22.113885220     0.000000000  0.000000000  0.045220457

  length of vectors
    21.138852197 21.138852197 22.113885220     0.047306258  0.047306258  0.045220457

  position of ions in fractional coordinates (direct lattice)
     0.449999988  0.450000018  0.698691433
     0.449999988  0.450000018  0.597977010
     0.000000000  0.000000000  0.406984115
     0.100000000  0.100000000  0.406984115
     0.000000000  0.100000000  0.502574971
     0.100000000  0.000000000  0.502574971
     0.000000000  0.200000000  0.406984115
     0.100000000  0.300000000  0.406984115
     0.000000000  0.300000000  0.502574971
     0.100000000  0.200000000  0.502574971
     0.000000000  0.400000000  0.406984115
[...]
  501                  map_gather                            0.006797                  6   8
  502                  m_alltoallv_z                         0.056811                  6   8
  503                  map_scatter                           0.004078                  6   8
  504          m_sumb_d                              0.000486                          3   4
  505        fortau                                0.560660                            1   3
  506          m_sumb_d                              0.008277                          1   4
  507        forhar                                0.547742                            1   3
  508          m_sumb_d                              0.000231                          1   4
  509        strehar                               0.019910                            1   3
  510          m_sumb_d                              0.007398                          1   4
  511        m_bcast_d                             0.004561                            2   3
  512      potlok                                0.087769                              1   2
  513        fft3d_mpi                             0.059818                            5   3
  514          fftbrc_mpi                            0.055737                          5   4
  515            fftbas_plan_mpi                       0.055721                        5   5
  516              dfftw_execute                         0.017582                     15   6
  517              map_backward                          0.012664                      4   6
  518                map_gather                            0.002229                    2   7
  519                m_alltoallv_z                         0.009133                    2   7
  520                map_scatter                           0.001260                    2   7
  521              map_forward                           0.021878                      6   6
  522                map_gather                            0.001274                    4   7
  523                m_alltoallv_z                         0.013767                    4   7
  524                map_scatter                           0.006767                    4   7
  525        m_sumb_d                              0.000362                            2   3
  526        fewald                                0.001346                            2   3
  527          rsp                                   0.001201                          2   4
  528          rcp                                   0.000129                          2   4
  529        pothar                                0.002344                            1   3
  530          m_sumb_d                              0.000800                          1   4
  531        m_bcast_d                             0.007173                            1   3
  532      potlok_metagga                        2.018434                              1   2
  533        fft3d_mpi                             0.231008                           17   3
  534          fftbrc_mpi                            0.218816                         17   4
  535            fftbas_plan_mpi                       0.218765                       17   5
  536              dfftw_execute                         0.054139                     51   6
  537              map_forward                           0.083920                     22   6
  538                map_gather                            0.005219                   13   7
  539                m_alltoallv_z                         0.060470                   13   7
  540                map_scatter                           0.017990                   13   7
  541              map_backward                          0.067159                     12   6
  542                map_gather                            0.006584                    6   7
  543                m_alltoallv_z                         0.056385                    6   7
  544                map_scatter                           0.004067                    6   7
  545        m_sumb_d                              0.000633                            3   3
  546        m_bcast_d                             0.012993                            2   3
  547      set_dd_magatom                        0.000000                              1   2
  548      set_dd_paw                            5.030099                              1   2
  549        set_rsgf_all                          0.000002                            1   3
  550        m_sumb_d                              5.029774                            7   3

 Flat profile

 set_kineden                          1514.707795         124
 m_sumb_d                              791.379601       25854
 dfftw_execute                         673.216463      227454
 edwav                                 240.516051         104
 potlok_metagga                        200.167675         106
 set_charge                            183.302988         105
 m_alltoall_d                          130.673573       51591
 map_scatter                           126.078538       76365
 map_gather                            111.610003       76365
 m_alltoallv_z                          99.119096       76365
 fftwav_mpi                             74.715500       40905
 lincom                                 61.750471         319
 map_forward                            55.241830       85084
 total_time                             53.919972           1
 kinhamil_tau                           48.071075        7671
 fftbas_plan_mpi                        44.861626       75818
 orth1                                  29.810933        5733
 eccp_tau                               20.532981        5751
 eddav                                  16.934829           5
 fftext_mpi                             11.668366       32088
 choleski                               10.516363         105
 m_bcast_z                               5.363452        1380
 ggemm                                   5.318422         624
 pw_charge                               5.027341        2415
 vhamil                                  4.404722        1920
 lapack                                  3.978015         489
 crrexp_mul_work_add                     3.765307      382386
 rpro1                                   3.376304        1758
 augmentation_charge                     3.076092         105
 racc0                                   2.891190        1404
 crrexp_mul_wave                         2.794786      426018
 eddiag                                  2.701722          53
 fft3d_mpi                               2.600883       75818
 m_bcast_d                               2.411566        1301
 setdij_                                 2.386779         133
 w1_dscal                                2.295188        1404
 redis_pw                                1.939469        7275
 potxc_metagga                           1.780074           1
 potlok                                  1.747593         106
 phaser                                  1.440607          70
 rspher_all                              1.174783          14
 gemm                                    1.010880       98778
 elmin_all                               0.816633           1
 map_backward                            0.635159       66552
 fortau                                  0.552383           1
 forhar                                  0.547511           1
 forloc                                  0.546557           1
 racc0mu                                 0.377375         489
 rpromu_gemm                             0.357832       18382
 stufak                                  0.333169           1
 soft_charge                             0.327895         105
 orthch                                  0.281781         105
 fftbas_mpi                              0.259150       72993
 redis_proj                              0.252684        7058
 stretau                                 0.238987           1
 overl                                   0.235931        2457
 w1_copy                                 0.164499        1467
 pothar                                  0.158013         106
 rpromu                                  0.149836          91
 rsp                                     0.133421         213
 fft_gq                                  0.077674         105
 depsum                                  0.062551         105
 inisym                                  0.051065           1
 apply_precond                           0.050815         354
 setup_precond                           0.049601         135
 set_dd_paw                              0.044617         107
 densta                                  0.025013         116
 overl1                                  0.022340         489
 hamilt_local_tau                        0.018473        1431
 force_and_stress                        0.017237           1
 strehar                                 0.012512           1
 rcp                                     0.011293         213
 hamiltmu_tau                            0.011171         489
 strelo                                  0.010800           1
 fftbrc_mpi                              0.009805        2825
 fewald                                  0.007765         213
 newband                                 0.007368         494
 strnlr                                  0.006691           1
 strkin                                  0.005769           1
 raccmu_                                 0.005612         489
 rpro_isp                                0.004488          13
 fornlr                                  0.002330           1
 w1_projall                              0.002121         354
 brgrid                                  0.001567           1
 posmap                                  0.000935           2
 redis_pw_all                            0.000848         104
 truncate_high_frequency_w1              0.000674         624
 redis_pw_over_bands                     0.000483         105
 fordep                                  0.000320           1
 crpa_reader                             0.000312           1
 set_rsgf_all                            0.000234         107
 proall                                  0.000050           1
 vectorpot                               0.000029           1
 rotate_active_occupied_orbital          0.000019           1
 shift_bands_between_low_high            0.000009           1
 set_dd_magatom                          0.000007           2
  summed up times    4567.17231702805

 Accumulative profile

 total_time                           4567.172317           1
 elmin_all                            4430.563024           1
 set_kineden                          1877.358288         124
 edwav                                1222.099924         104
 fft3d_mpi                            1113.632553       75818
 fftbas_plan_mpi                      1110.762714       75818
 fftbas_mpi                           1060.698820       72993
 kinhamil_tau                          872.339442        7671
 m_sumb_d                              791.379601       25854
 fftwav_mpi                            694.783022       40905
 eccp_tau                              674.181926        5751
 dfftw_execute                         673.216463      227454
 set_dd_paw                            538.153922         107
 fftext_mpi                            452.597918       32088
 set_charge                            262.225809         105
 map_forward                           246.646232       85084
 potlok_metagga                        226.377779         106
 eddiag                                223.970527          53
 hamilt_local_tau                      166.677580        1431
 map_backward                          146.038394       66552
 m_alltoall_d                          130.673573       51591
 eddav                                 129.980330           5
 map_scatter                           126.078538       76365
 redis_pw                              121.048186        7275
 map_gather                            111.610003       76365
 m_alltoallv_z                          99.119096       76365
 force_and_stress                       68.623365           1
 lincom                                 61.750471         319
 hamiltmu_tau                           59.227415         489
 soft_charge                            53.839335         105
 stretau                                50.816162           1
 fftbrc_mpi                             50.332850        2825
 orthch                                 48.549441         105
 orth1                                  29.810933        5733
 newband                                18.489476         494
 redis_proj                             11.817540        7058
 choleski                               10.516363         105
 potlok                                  9.578281         106
 rpro_isp                                6.984834          13
 strnlr                                  6.399485           1
 rpro1                                   6.224746        1758
 racc0                                   5.944607        1404
 m_bcast_z                               5.363452        1380
 ggemm                                   5.318422         624
 pw_charge                               5.027341        2415
 vhamil                                  4.404722        1920
 augmentation_charge                     4.403097         105
 lapack                                  3.978015         489
 crrexp_mul_work_add                     3.765307      382386
 redis_pw_over_bands                     3.463542         105
 redis_pw_all                            3.463059         104
 setdij_                                 2.896947         133
 crrexp_mul_wave                         2.794786      426018
 raccmu_                                 2.475165         489
 racc0mu                                 2.447214         489
 m_bcast_d                               2.411566        1301
 w1_dscal                                2.295188        1404
 fornlr                                  2.160495           1
 potxc_metagga                           1.965895           1
 phaser                                  1.440607          70
 w1_projall                              1.270925         354
 fft_gq                                  1.224051         105
 rspher_all                              1.174783          14
 rpromu                                  1.046888          91
 gemm                                    1.010880       98778
 proall                                  0.607786           1
 depsum                                  0.588823         105
 fortau                                  0.560660           1
 forloc                                  0.550791           1
 forhar                                  0.547742           1
 rpromu_gemm                             0.357832       18382
 stufak                                  0.333169           1
 pothar                                  0.257757         106
 overl                                   0.235931        2457
 densta                                  0.210627         116
 w1_copy                                 0.164499        1467
 fewald                                  0.159135         213
 rsp                                     0.133421         213
 fordep                                  0.122536           1
 setup_precond                           0.059433         135
 inisym                                  0.052000           1
 apply_precond                           0.050815         354
 overl1                                  0.022340         489
 strehar                                 0.019910           1
 strkin                                  0.012961           1
 rcp                                     0.011293         213
 strelo                                  0.011187           1
 brgrid                                  0.001567           1
 posmap                                  0.000935           2
 truncate_high_frequency_w1              0.000674         624
 crpa_reader                             0.000312           1
 set_rsgf_all                            0.000234         107
 vectorpot                               0.000029           1
 rotate_active_occupied_orbital          0.000019           1
 shift_bands_between_low_high            0.000009           1
 set_dd_magatom                          0.000007           2

Profiling took   1.656486  0.704157  0.007767  0.006498 seconds
Profiling took   2.235854 seconds