 vasp.6.3.2 27Jun22 (build Jan 05 2024 11:34:19) complex

 executed on           IFC15_impi date 2024.01.08  21:57:32

 INCAR:
   SYSTEM = MgO-rocksalt
   ISMEAR = 0
   SIGMA = 0.05
   EDIFF = 1E-6
   ALGO = ALL
   ISTART = 0
   IBRION = -1
   NSW = 0
   ISYM = 2
   DIPOL = 0.5 0.5 0.5
   IDIPOL = 3
   LDIPOL = .TRUE.
   METAGGA = M06L
   ENCUT = 520
   PREC = Accurate
   LASPH = .TRUE.
   LREAL = Auto
   ISPIN = 1
   NELM = 2000
   NELMIN = 8
   NCORE = 8
   LWAVE = .FALSE.
   LCHARG = .FALSE.

 POTCAR:    PAW_PBE Au 04Oct2007
 POTCAR:    PAW_PBE Mg_pv 13Apr2007
 POTCAR:    PAW_PBE O 08Apr2002
 POTCAR:    PAW_PBE Au 04Oct2007
   VRHFIN =Au: s1d10

   TITEL  = PAW_PBE Au 04Oct2007
   POMASS =  196.966; ZVAL   =   11.000    mass and valenz
   ENMAX  =  229.943; ENMIN  =  172.457 eV

   TITEL  = PAW_PBE Mg_pv 13Apr2007
   POMASS =   24.305; ZVAL   =    8.000    mass and valenz
   ENMAX  =  403.929; ENMIN  =  302.947 eV

   TITEL  = PAW_PBE O 08Apr2002
   POMASS =   16.000; ZVAL   =    6.000    mass and valenz
   ENMAX  =  400.000; ENMIN  =  300.000 eV

 Optimization of the real space projectors (new method)

 maximal supplied QI-value         = 15.12
 optimisation between [QCUT,QGAM] = [ 11.64, 23.28] = [ 37.95,151.78] Ry
 Optimized for a Real-space Cutoff    1.49 Angstroem

   l    n(q)    QCUT    max X(q) W(low)/X(q) W(high)/X(q)  e(spline)
   2      9    11.641    60.898    0.24E-03    0.10E-03    0.19E-06
   2      9    11.641    58.894    0.25E-03    0.10E-03    0.19E-06
   0     10    11.641   109.617    0.73E-04    0.33E-04    0.11E-06
   0     10    11.641    75.026    0.71E-04    0.32E-04    0.11E-06
   1     10    11.641    16.344    0.27E-04    0.97E-04    0.16E-06
   1     10    11.641    10.160    0.23E-04    0.77E-04    0.13E-06
 Optimization of the real space projectors (new method)

[...]

   l    n(q)    QCUT    max X(q) W(low)/X(q) W(high)/X(q)  e(spline)
   1      8    11.527     2.974    0.44E-04    0.56E-04    0.12E-06
   1      8    11.527     4.279    0.12E-03    0.12E-03    0.26E-06
   0      9    11.527    16.381    0.46E-04    0.64E-04    0.78E-07
   0      9    11.527     5.611    0.26E-04    0.43E-04    0.55E-07
   2      8    11.527     4.652    0.22E-03    0.72E-04    0.47E-07
 Optimization of the real space projectors (new method)

 maximal supplied QI-value         = 24.76
 optimisation between [QCUT,QGAM] = [ 11.64, 23.27] = [ 37.91,151.63] Ry
 Optimized for a Real-space Cutoff    1.14 Angstroem

   l    n(q)    QCUT    max X(q) W(low)/X(q) W(high)/X(q)  e(spline)
   0      8    11.635    20.381    0.10E-03    0.33E-03    0.24E-06
   0      8    11.635    15.268    0.11E-03    0.35E-03    0.26E-06
   1      7    11.635     5.964    0.24E-03    0.31E-03    0.30E-06
   1      7    11.635     5.382    0.22E-03    0.25E-03    0.26E-06
  PAW_PBE Au 04Oct2007                  :
  PAW_PBE Mg_pv 13Apr2007               :
  PAW_PBE O 08Apr2002                   :

 POSCAR: Au Mg  O
  positions in direct lattice

 METAGGA = M06L     LMAXTAU =  6    LMIXTAU =  F

 VTST: version 4.1, (05/19/21)

 CHAIN: initializing optimizer

 OPT: Using VASP Dynamics algorithm
 CHAIN: Read ICHAIN            0

 POSCAR: Au Mg  O
  positions in direct lattice

 ion  position               nearest neighbor table
   1  0.543  0.457  0.618-   2 2.55  54 2.97  73 2.97
   2  0.457  0.543  0.618-   1 2.55  53 2.97  58 2.97
   3  0.000  0.000  0.407- 105 2.11 106 2.11 121 2.11 186 2.11 103 2.11
   4  0.100  0.100  0.407- 105 2.11 106 2.11 110 2.11 125 2.11 104 2.11
   5  0.000  0.100  0.503- 103 2.11 104 2.11 107 2.11 184 2.11 105 2.11
   6  0.100  0.000  0.503- 103 2.11 104 2.11 120 2.11 123 2.11 106 2.11
   7  0.000  0.200  0.407- 109 2.11 105 2.11 110 2.11 190 2.11 107 2.11
   8  0.100  0.300  0.407- 110 2.11 109 2.11 114 2.11 129 2.11 108 2.11
   9  0.000  0.300  0.503- 107 2.11 108 2.11 111 2.11 188 2.11 109 2.11
  10  0.100  0.200  0.503- 108 2.11 107 2.11 104 2.11 127 2.11 110 2.11
  11  0.000  0.400  0.407- 109 2.11 113 2.11 114 2.11 194 2.11 111 2.11
  12  0.100  0.500  0.407- 113 2.11 114 2.11 118 2.11 133 2.11 112 2.11
  13  0.000  0.500  0.503- 111 2.11 112 2.11 115 2.11 192 2.11 113 2.11
  14  0.100  0.400  0.503- 108 2.11 111 2.11 112 2.11 131 2.11 114 2.11
  15  0.000  0.600  0.407- 113 2.11 117 2.11 118 2.11 198 2.11 115 2.11
  16  0.100  0.700  0.407- 122 2.11 118 2.11 117 2.11 137 2.11 116 2.11
  17  0.000  0.700  0.503- 119 2.11 116 2.11 115 2.11 196 2.11 117 2.11
  18  0.100  0.600  0.503- 112 2.11 115 2.11 116 2.11 135 2.11 118 2.11
  19  0.000  0.800  0.407- 117 2.11 121 2.11 122 2.11 202 2.11 119 2.11
  20  0.100  0.900  0.407- 106 2.11 121 2.11 122 2.11 141 2.11 120 2.11
  21  0.000  0.900  0.503- 103 2.11 119 2.11 120 2.11 200 2.11 121 2.11
  22  0.100  0.800  0.503- 116 2.11 119 2.11 120 2.11 139 2.11 122 2.11
  23  0.200  0.000  0.407- 126 2.11 125 2.11 106 2.11 141 2.11 123 2.11
  24  0.300  0.100  0.407- 125 2.11 126 2.11 130 2.11 145 2.11 124 2.11
  25  0.200  0.100  0.503- 124 2.11 123 2.11 104 2.11 127 2.11 125 2.11
  26  0.300  0.000  0.503- 123 2.11 124 2.11 140 2.11 143 2.11 126 2.11
  27  0.200  0.200  0.407- 129 2.11 130 2.11 110 2.11 125 2.11 127 2.11
  28  0.300  0.300  0.407- 129 2.11 130 2.11 134 2.11 149 2.11 128 2.11
  29  0.200  0.300  0.503- 127 2.11 128 2.11 108 2.11 131 2.11 129 2.11
  30  0.300  0.200  0.503- 127 2.11 128 2.11 124 2.11 147 2.11 130 2.11
  31  0.200  0.400  0.407- 134 2.11 129 2.11 133 2.11 114 2.11 131 2.11
  32  0.300  0.500  0.407- 133 2.11 134 2.11 138 2.11 153 2.11 132 2.11
  33  0.200  0.500  0.503- 132 2.11 131 2.11 112 2.11 135 2.11 133 2.11
  34  0.300  0.400  0.503- 131 2.11 128 2.11 132 2.11 151 2.11 134 2.11
  35  0.200  0.600  0.407- 138 2.11 133 2.11 137 2.11 118 2.11 135 2.11
  36  0.300  0.700  0.407- 137 2.11 142 2.11 138 2.11 157 2.11 136 2.11
  37  0.200  0.700  0.503- 136 2.11 139 2.11 116 2.11 135 2.11 137 2.11
  38  0.300  0.600  0.503- 135 2.11 132 2.11 136 2.11 155 2.11 138 2.11
  39  0.200  0.800  0.407- 137 2.11 142 2.11 141 2.11 122 2.11 139 2.11
  40  0.300  0.900  0.407- 141 2.11 126 2.11 142 2.11 161 2.11 140 2.11
  41  0.200  0.900  0.503- 140 2.11 123 2.11 139 2.11 120 2.11 141 2.11
  42  0.300  0.800  0.503- 136 2.11 139 2.11 140 2.11 159 2.11 142 2.11
  43  0.400  0.000  0.407- 126 2.11 145 2.11 146 2.11 161 2.11 143 2.11
  44  0.500  0.100  0.407- 145 2.11 146 2.11 150 2.11 165 2.11 144 2.11
  45  0.400  0.100  0.503- 124 2.11 143 2.11 144 2.11 147 2.11 145 2.11
  46  0.500  0.000  0.503- 143 2.11 144 2.11 160 2.11 163 2.11 146 2.11
  47  0.400  0.200  0.407- 149 2.11 145 2.11 130 2.11 150 2.11 147 2.11
  48  0.500  0.300  0.407- 150 2.11 149 2.11 154 2.11 169 2.11 148 2.11
  49  0.400  0.300  0.503- 147 2.11 128 2.11 148 2.11 151 2.11 149 2.11
  50  0.500  0.200  0.503- 148 2.11 147 2.11 144 2.11 167 2.11 150 2.11
  51  0.400  0.400  0.407- 134 2.11 149 2.11 153 2.11 154 2.11 151 2.11
  52  0.500  0.500  0.407- 153 2.11 154 2.11 158 2.11 173 2.11 152 2.11
  53  0.400  0.500  0.503- 132 2.11 151 2.11 152 2.11 155 2.11 153 2.11   2 2.97
  54  0.500  0.400  0.503- 148 2.11 151 2.11 152 2.11 171 2.11 154 2.11   1 2.97
  55  0.400  0.600  0.407- 138 2.11 153 2.11 157 2.11 158 2.11 155 2.11
  56  0.500  0.700  0.407- 162 2.11 158 2.11 157 2.11 177 2.11 156 2.11
  57  0.400  0.700  0.503- 159 2.11 155 2.11 156 2.11 136 2.11 157 2.11
  58  0.500  0.600  0.503- 152 2.11 155 2.11 156 2.11 175 2.11 158 2.11   2 2.97
  59  0.400  0.800  0.407- 157 2.11 142 2.11 161 2.11 162 2.11 159 2.11
  60  0.500  0.900  0.407- 146 2.11 161 2.11 162 2.11 181 2.11 160 2.11
[...]
 188  0.900  0.300  0.503-  90 2.11  89 2.11   9 2.11  94 2.11  88 2.11
 189  0.800  0.300  0.407-  68 2.11  87 2.11  88 2.11  91 2.11  89 2.11
 190  0.900  0.200  0.407-  88 2.11  84 2.11  87 2.11   7 2.11  90 2.11
 191  0.800  0.400  0.503-  74 2.11  89 2.11  93 2.11  94 2.11  91 2.11
 192  0.900  0.500  0.503-  13 2.11  93 2.11  94 2.11  98 2.11  92 2.11
 193  0.800  0.500  0.407-  72 2.11  91 2.11  92 2.11  95 2.11  93 2.11
 194  0.900  0.400  0.407-  11 2.11  88 2.11  91 2.11  92 2.11  94 2.11
 195  0.800  0.600  0.503-  78 2.11  93 2.11  97 2.11  98 2.11  95 2.11
 196  0.900  0.700  0.503- 102 2.11  97 2.11  98 2.11  17 2.11  96 2.11
 197  0.800  0.700  0.407-  76 2.11  99 2.11  96 2.11  95 2.11  97 2.11
 198  0.900  0.600  0.407-  15 2.11  92 2.11  95 2.11  96 2.11  98 2.11
 199  0.800  0.800  0.503-  82 2.11  97 2.11 101 2.11 102 2.11  99 2.11
 200  0.900  0.900  0.503-  21 2.11  86 2.11 101 2.11 102 2.11 100 2.11
 201  0.800  0.900  0.407-  80 2.11  83 2.11  99 2.11 100 2.11 101 2.11
 202  0.900  0.800  0.407-  96 2.11  19 2.11  99 2.11 100 2.11 102 2.11

  LATTYP: Found a simple tetragonal cell.
 ALAT       =    21.1388521970
 C/A-ratio  =     1.0461251639

  Lattice vectors:

 A1 = (  21.1388521970,   0.0000000000,   0.0000000000)
 A2 = (   0.0000000000,  21.1388521970,   0.0000000000)
 A3 = (   0.0000000000,   0.0000000000,  22.1138852197)

Analysis of symmetry for initial positions (statically):
 Subroutine PRICEL returns:
 Original cell was already a primitive cell.

 Routine SETGRP: Setting up the symmetry group for a
 simple tetragonal supercell.

 Subroutine GETGRP returns: Found  4 space group operations
 (whereof  4 operations were pure point group operations)
 out of a pool of 16 trial point group operations.

The static configuration has the point symmetry C_2v.

Analysis of symmetry for dynamics (positions and initial velocities):
 Subroutine PRICEL returns:
 Original cell was already a primitive cell.

 Routine SETGRP: Setting up the symmetry group for a
 simple tetragonal supercell.

 Subroutine GETGRP returns: Found  4 space group operations
 (whereof  4 operations were pure point group operations)
 out of a pool of 16 trial point group operations.

The dynamic configuration has the point symmetry C_2v.

 Subroutine INISYM returns: Found  4 space group operations
 (whereof  4 operations are pure point group operations),
 and found     1 'primitive' translations

                                     Primitive cell

  volume of cell :    9881.6133

  direct lattice vectors                    reciprocal lattice vectors
    21.138852197  0.000000000  0.000000000     0.047306258  0.000000000  0.000000000
     0.000000000 21.138852197  0.000000000     0.000000000  0.047306258  0.000000000
     0.000000000  0.000000000 22.113885220     0.000000000  0.000000000  0.045220457

  length of vectors
    21.138852197 21.138852197 22.113885220     0.047306258  0.047306258  0.045220457

  position of ions in fractional coordinates (direct lattice)
     0.542717991  0.457282009  0.618300337
     0.457282009  0.542717991  0.618300337
     0.000000000  0.000000000  0.406984115
     0.100000000  0.100000000  0.406984115
     0.000000000  0.100000000  0.502574971
     0.100000000  0.000000000  0.502574971
     0.000000000  0.200000000  0.406984115
     0.100000000  0.300000000  0.406984115
     0.000000000  0.300000000  0.502574971
     0.100000000  0.200000000  0.502574971
     0.000000000  0.400000000  0.406984115
     0.100000000  0.500000000  0.406984115
     0.000000000  0.500000000  0.502574971
[...]
  501                  map_gather                            0.006834                  6   8
  502                  m_alltoallv_z                         0.036493                  6   8
  503                  map_scatter                           0.003840                  6   8
  504          m_sumb_d                              0.000859                          3   4
  505        fortau                                0.555405                            1   3
  506          m_sumb_d                              0.001258                          1   4
  507        forhar                                0.546272                            1   3
  508          m_sumb_d                              0.000478                          1   4
  509        strehar                               0.018874                            1   3
  510          m_sumb_d                              0.006380                          1   4
  511        m_bcast_d                             0.000620                            2   3
  512      potlok                                0.088670                              1   2
  513        fft3d_mpi                             0.061034                            5   3
  514          fftbrc_mpi                            0.057018                          5   4
  515            fftbas_plan_mpi                       0.057001                        5   5
  516              dfftw_execute                         0.017560                     15   6
  517              map_backward                          0.012903                      4   6
  518                map_gather                            0.002233                    2   7
  519                m_alltoallv_z                         0.009294                    2   7
  520                map_scatter                           0.001329                    2   7
  521              map_forward                           0.022187                      6   6
  522                map_gather                            0.001137                    4   7
  523                m_alltoallv_z                         0.014571                    4   7
  524                map_scatter                           0.006410                    4   7
  525        m_sumb_d                              0.000402                            2   3
  526        fewald                                0.001290                            2   3
  527          rsp                                   0.001137                          2   4
  528          rcp                                   0.000140                          2   4
  529        pothar                                0.001657                            1   3
  530          m_sumb_d                              0.000146                          1   4
  531        m_bcast_d                             0.006281                            1   3
  532      potlok_metagga                        2.025495                              1   2
  533        fft3d_mpi                             0.224849                           17   3
  534          fftbrc_mpi                            0.212258                         17   4
  535            fftbas_plan_mpi                       0.212208                       17   5
  536              dfftw_execute                         0.054004                     51   6
  537              map_forward                           0.088336                     22   6
  538                map_gather                            0.004995                   13   7
  539                m_alltoallv_z                         0.063885                   13   7
  540                map_scatter                           0.019192                   13   7
  541              map_backward                          0.056619                     12   6
  542                map_gather                            0.006603                    6   7
  543                m_alltoallv_z                         0.046003                    6   7
  544                map_scatter                           0.003898                    6   7
  545        m_sumb_d                              0.000537                            3   3
  546        m_bcast_d                             0.013940                            2   3
  547      set_dd_magatom                        0.000000                              1   2
  548      set_dd_paw                            4.999041                              1   2
  549        set_rsgf_all                          0.000001                            1   3
  550        m_sumb_d                              4.998846                            7   3

 Flat profile

 set_kineden                           546.138688          60
 dfftw_execute                         300.195476      101136
 m_sumb_d                              294.465993       12480
 edwav                                  92.568643          40
 potlok_metagga                         85.092180          42
 set_charge                             64.294357          41
 map_scatter                            56.194009       33939
 total_time                             52.974504           1
 map_gather                             49.622858       33939
 m_alltoallv_z                          37.657474       33939
 fftwav_mpi                             32.763556       18647
 map_forward                            24.742851       38648
 lincom                                 24.662904         127
 kinhamil_tau                           20.595559        3341
 fftbas_plan_mpi                        19.965923       33712
 eddav                                  17.182121           5
 m_alltoall_d                           15.294636       22145
 orth1                                  14.980659        3111
 eccp_tau                                7.978835        2295
 m_bcast_z                               5.282101        1370
 ggemm                                   5.163642         614
 fftext_mpi                              5.102647       13904
 choleski                                4.127839          41
 lapack                                  3.747646         479
 eddiag                                  2.687662          21
 vhamil                                  2.364437        1046
 crrexp_mul_work_add                     2.028647      205838
 pw_charge                               1.974467         943
 augmentation_charge                     1.811200          41
 potxc_metagga                           1.798860           1
 rpro1                                   1.709745         884
 setdij_                                 1.682995          69
 crrexp_mul_wave                         1.612360      249470
 rspher_all                              1.117188          14
 fft3d_mpi                               1.082376       33712
 racc0                                   1.078061         540
 m_bcast_d                               1.063807        1089
 gemm                                    0.982022       96758
 redis_pw                                0.891849        3629
 w1_dscal                                0.855891         540
 phaser                                  0.783149          38
 potlok                                  0.730935          42
 fortau                                  0.554147           1
 forloc                                  0.549361           1
 forhar                                  0.545794           1
 elmin_all                               0.394082           1
 rpromu_gemm                             0.368434       18382
 racc0mu                                 0.366548         479
 stufak                                  0.329104           1
 map_backward                            0.275287       28776
 stretau                                 0.239823           1
 w1_copy                                 0.159724        1437
 rpromu                                  0.152713          91
 orthch                                  0.124761          41
 soft_charge                             0.122195          41
 redis_proj                              0.118482        3722
 fftbas_mpi                              0.117067       32551
 overl                                   0.114104        1445
 pothar                                  0.062306          42
 rsp                                     0.056872          85
 apply_precond                           0.050699         344
 inisym                                  0.050234           1
 setup_precond                           0.047079         135
 fft_gq                                  0.030974          41
 depsum                                  0.024373          41
 overl1                                  0.021867         479
 set_dd_paw                              0.019822          43
 force_and_stress                        0.016297           1
 rpro_isp                                0.012546          13
 strehar                                 0.012494           1
 densta                                  0.012204          52
 hamiltmu_tau                            0.011966         479
 strelo                                  0.010844           1
 brgrid                                  0.008380           1
 hamilt_local_tau                        0.007576         567
 newband                                 0.007473         484
 strnlr                                  0.006860           1
 fewald                                  0.006667          85
 strkin                                  0.005719           1
 raccmu_                                 0.005328         479
 rcp                                     0.004755          85
 fftbrc_mpi                              0.003915        1161
 fornlr                                  0.002251           1
 w1_projall                              0.001995         344
 posmap                                  0.000875           2
 truncate_high_frequency_w1              0.000618         614
 fordep                                  0.000591           1
 redis_pw_all                            0.000326          40
 set_rsgf_all                            0.000287          43
 crpa_reader                             0.000276           1
 redis_pw_over_bands                     0.000177          41
 proall                                  0.000099           1
 vectorpot                               0.000030           1
 rotate_active_occupied_orbital          0.000018           1
 set_dd_magatom                          0.000011           2
 shift_bands_between_low_high            0.000009           1
  summed up times    1812.08719110489

 Accumulative profile

 total_time                           1812.087191           1
 elmin_all                            1682.392170           1
 set_kineden                           690.714018          60
 fft3d_mpi                             489.857236       33712
 fftbas_plan_mpi                       488.653877       33712
 fftbas_mpi                            473.007068       32551
 edwav                                 431.341009          40
 kinhamil_tau                          377.754549        3341
 fftwav_mpi                            315.405236       18647
 dfftw_execute                         300.195476      101136
 m_sumb_d                              294.465993       12480
 eccp_tau                              267.574280        2295
 set_dd_paw                            215.655781          43
 fftext_mpi                            195.605889       13904
 eddav                                 128.051665           5
 map_forward                           106.144894       38648
 potlok_metagga                         94.909959          42
 set_charge                             94.075897          41
 eddiag                                 79.146636          21
 hamilt_local_tau                       65.550675         567
 force_and_stress                       62.761434           1
 map_backward                           62.347584       28776
 hamiltmu_tau                           57.541822         479
 map_scatter                            56.194009       33939
 map_gather                             49.622858       33939
 stretau                                45.652041           1
 m_alltoallv_z                          37.657474       33939
 lincom                                 24.662904         127
 soft_charge                            19.560656          41
 orthch                                 19.022000          41
 newband                                18.367547         484
 fftbrc_mpi                             15.767791        1161
 m_alltoall_d                           15.294636       22145
 orth1                                  14.980659        3111
 redis_pw                               11.546441        3629
 rpro_isp                                7.051293          13
 strnlr                                  5.780757           1
 m_bcast_z                               5.282101        1370
 ggemm                                   5.163642         614
 redis_proj                              4.758526        3722
 choleski                                4.127839          41
 potlok                                  4.093542          42
 lapack                                  3.747646         479
 rpro1                                   3.111939         884
 raccmu_                                 2.423198         479
 racc0mu                                 2.396003         479
 vhamil                                  2.364437        1046
 augmentation_charge                     2.325532          41
 racc0                                   2.259026         540
 crrexp_mul_work_add                     2.028647      205838
 setdij_                                 1.978605          69
 pw_charge                               1.974467         943
 potxc_metagga                           1.959745           1
 fornlr                                  1.944717           1
 crrexp_mul_wave                         1.612360      249470
 redis_pw_over_bands                     1.326074          41
 redis_pw_all                            1.325897          40
 w1_projall                              1.208840         344
 rspher_all                              1.117188          14
 m_bcast_d                               1.063807        1089
 rpromu                                  1.035546          91
 gemm                                    0.982022       96758
 w1_dscal                                0.855891         540
 phaser                                  0.783149          38
 proall                                  0.603891           1
 fortau                                  0.555405           1
 forloc                                  0.550471           1
 forhar                                  0.546272           1
 fft_gq                                  0.501142          41
 rpromu_gemm                             0.368434       18382
 stufak                                  0.329104           1
 depsum                                  0.294358          41
 fordep                                  0.163154           1
 w1_copy                                 0.159724        1437
 densta                                  0.115041          52
 overl                                   0.114104        1445
 pothar                                  0.078765          42
 fewald                                  0.074845          85
 setup_precond                           0.057245         135
 rsp                                     0.056872          85
 inisym                                  0.051109           1
 apply_precond                           0.050699         344
 overl1                                  0.021867         479
 strehar                                 0.018874           1
 strelo                                  0.017844           1
 brgrid                                  0.008380           1
 strkin                                  0.006055           1
 rcp                                     0.004755          85
 posmap                                  0.000875           2
 truncate_high_frequency_w1              0.000618         614
 set_rsgf_all                            0.000287          43
 crpa_reader                             0.000276           1
 vectorpot                               0.000030           1
 rotate_active_occupied_orbital          0.000018           1
 set_dd_magatom                          0.000011           2
 shift_bands_between_low_high            0.000009           1

Profiling took   0.825070  0.365359  0.007651  0.006523 seconds
Profiling took   1.062454 seconds