 vasp.6.3.2 27Jun22 (build Jan 05 2024 11:34:19) complex

 executed on           IFC15_impi date 2024.01.09  01:31:25

 INCAR:
   SYSTEM = MgO-rocksalt
   ISMEAR = 0
   SIGMA = 0.05
   EDIFF = 1E-6
   ALGO = ALL
   ISTART = 0
   IBRION = -1
   NSW = 0
   ISYM = 2
   DIPOL = 0.5 0.5 0.5
   IDIPOL = 3
   LDIPOL = .TRUE.
   METAGGA = M06L
   ENCUT = 520
   PREC = Accurate
   LASPH = .TRUE.
   LREAL = Auto
   ISPIN = 1
   NELM = 2000
   NELMIN = 8
   NCORE = 8
   LWAVE = .FALSE.
   LCHARG = .FALSE.

 POTCAR:    PAW_PBE Cu 22Jun2005
 POTCAR:    PAW_PBE Mg_pv 13Apr2007
 POTCAR:    PAW_PBE O 08Apr2002
 POTCAR:    PAW_PBE Cu 22Jun2005
   VRHFIN =Cu: d10 p1

   TITEL  = PAW_PBE Cu 22Jun2005
   POMASS =   63.546; ZVAL   =   11.000    mass and valenz
   ENMAX  =  295.446; ENMIN  =  221.585 eV

   TITEL  = PAW_PBE Mg_pv 13Apr2007
   POMASS =   24.305; ZVAL   =    8.000    mass and valenz
   ENMAX  =  403.929; ENMIN  =  302.947 eV

   TITEL  = PAW_PBE O 08Apr2002
   POMASS =   16.000; ZVAL   =    6.000    mass and valenz
   ENMAX  =  400.000; ENMIN  =  300.000 eV

 Optimization of the real space projectors (new method)

 maximal supplied QI-value         = 16.25
 optimisation between [QCUT,QGAM] = [ 11.54, 23.24] = [ 37.28,151.24] Ry
 Optimized for a Real-space Cutoff    1.53 Angstroem

   l    n(q)    QCUT    max X(q) W(low)/X(q) W(high)/X(q)  e(spline)
   2     10    11.539     4.610    0.96E-04    0.13E-03    0.19E-06
   2     10    11.539     8.522    0.16E-03    0.21E-03    0.28E-06
   0     11    11.539    51.609    0.45E-04    0.31E-04    0.11E-06
   0     11    11.539    27.747    0.39E-04    0.29E-04    0.10E-06
   1     10    11.539    20.408    0.70E-05    0.38E-04    0.18E-06
   1     10    11.539    13.425    0.66E-05    0.34E-04    0.17E-06
 Optimization of the real space projectors (new method)

[...]

   l    n(q)    QCUT    max X(q) W(low)/X(q) W(high)/X(q)  e(spline)
   1      8    11.527     2.974    0.44E-04    0.56E-04    0.12E-06
   1      8    11.527     4.279    0.12E-03    0.12E-03    0.26E-06
   0      9    11.527    16.381    0.46E-04    0.64E-04    0.78E-07
   0      9    11.527     5.611    0.26E-04    0.43E-04    0.55E-07
   2      8    11.527     4.652    0.22E-03    0.72E-04    0.47E-07
 Optimization of the real space projectors (new method)

 maximal supplied QI-value         = 24.76
 optimisation between [QCUT,QGAM] = [ 11.64, 23.27] = [ 37.91,151.63] Ry
 Optimized for a Real-space Cutoff    1.14 Angstroem

   l    n(q)    QCUT    max X(q) W(low)/X(q) W(high)/X(q)  e(spline)
   0      8    11.635    20.381    0.10E-03    0.33E-03    0.24E-06
   0      8    11.635    15.268    0.11E-03    0.35E-03    0.26E-06
   1      7    11.635     5.964    0.24E-03    0.31E-03    0.30E-06
   1      7    11.635     5.382    0.22E-03    0.25E-03    0.26E-06
  PAW_PBE Cu 22Jun2005                  :
  PAW_PBE Mg_pv 13Apr2007               :
  PAW_PBE O 08Apr2002                   :

 POSCAR: Cu Mg  O
  positions in direct lattice

 METAGGA = M06L     LMAXTAU =  6    LMIXTAU =  F

 VTST: version 4.1, (05/19/21)

 CHAIN: initializing optimizer

 OPT: Using VASP Dynamics algorithm
 CHAIN: Read ICHAIN            0

 POSCAR: Cu Mg  O
  positions in direct lattice

 ion  position               nearest neighbor table
   1  0.538  0.562  0.615-   2 2.24
   2  0.462  0.638  0.615-   1 2.24
   3  0.000  0.000  0.407- 105 2.11 106 2.11 121 2.11 186 2.11 103 2.11
   4  0.100  0.100  0.407- 105 2.11 106 2.11 110 2.11 125 2.11 104 2.11
   5  0.000  0.100  0.503- 103 2.11 104 2.11 107 2.11 184 2.11 105 2.11
   6  0.100  0.000  0.503- 103 2.11 104 2.11 120 2.11 123 2.11 106 2.11
   7  0.000  0.200  0.407- 109 2.11 105 2.11 110 2.11 190 2.11 107 2.11
   8  0.100  0.300  0.407- 110 2.11 109 2.11 114 2.11 129 2.11 108 2.11
   9  0.000  0.300  0.503- 107 2.11 108 2.11 111 2.11 188 2.11 109 2.11
  10  0.100  0.200  0.503- 108 2.11 107 2.11 104 2.11 127 2.11 110 2.11
  11  0.000  0.400  0.407- 109 2.11 113 2.11 114 2.11 194 2.11 111 2.11
  12  0.100  0.500  0.407- 113 2.11 114 2.11 118 2.11 133 2.11 112 2.11
  13  0.000  0.500  0.503- 111 2.11 112 2.11 115 2.11 192 2.11 113 2.11
  14  0.100  0.400  0.503- 108 2.11 111 2.11 112 2.11 131 2.11 114 2.11
  15  0.000  0.600  0.407- 113 2.11 117 2.11 118 2.11 198 2.11 115 2.11
  16  0.100  0.700  0.407- 122 2.11 118 2.11 117 2.11 137 2.11 116 2.11
  17  0.000  0.700  0.503- 119 2.11 116 2.11 115 2.11 196 2.11 117 2.11
  18  0.100  0.600  0.503- 112 2.11 115 2.11 116 2.11 135 2.11 118 2.11
  19  0.000  0.800  0.407- 117 2.11 121 2.11 122 2.11 202 2.11 119 2.11
  20  0.100  0.900  0.407- 106 2.11 121 2.11 122 2.11 141 2.11 120 2.11
  21  0.000  0.900  0.503- 103 2.11 119 2.11 120 2.11 200 2.11 121 2.11
  22  0.100  0.800  0.503- 116 2.11 119 2.11 120 2.11 139 2.11 122 2.11
  23  0.200  0.000  0.407- 126 2.11 125 2.11 106 2.11 141 2.11 123 2.11
  24  0.300  0.100  0.407- 125 2.11 126 2.11 130 2.11 145 2.11 124 2.11
  25  0.200  0.100  0.503- 124 2.11 123 2.11 104 2.11 127 2.11 125 2.11
  26  0.300  0.000  0.503- 123 2.11 124 2.11 140 2.11 143 2.11 126 2.11
  27  0.200  0.200  0.407- 129 2.11 130 2.11 110 2.11 125 2.11 127 2.11
  28  0.300  0.300  0.407- 129 2.11 130 2.11 134 2.11 149 2.11 128 2.11
  29  0.200  0.300  0.503- 127 2.11 128 2.11 108 2.11 131 2.11 129 2.11
  30  0.300  0.200  0.503- 127 2.11 128 2.11 124 2.11 147 2.11 130 2.11
  31  0.200  0.400  0.407- 134 2.11 129 2.11 133 2.11 114 2.11 131 2.11
  32  0.300  0.500  0.407- 133 2.11 134 2.11 138 2.11 153 2.11 132 2.11
  33  0.200  0.500  0.503- 132 2.11 131 2.11 112 2.11 135 2.11 133 2.11
  34  0.300  0.400  0.503- 131 2.11 128 2.11 132 2.11 151 2.11 134 2.11
  35  0.200  0.600  0.407- 138 2.11 133 2.11 137 2.11 118 2.11 135 2.11
  36  0.300  0.700  0.407- 137 2.11 142 2.11 138 2.11 157 2.11 136 2.11
  37  0.200  0.700  0.503- 136 2.11 139 2.11 116 2.11 135 2.11 137 2.11
  38  0.300  0.600  0.503- 135 2.11 132 2.11 136 2.11 155 2.11 138 2.11
  39  0.200  0.800  0.407- 137 2.11 142 2.11 141 2.11 122 2.11 139 2.11
  40  0.300  0.900  0.407- 141 2.11 126 2.11 142 2.11 161 2.11 140 2.11
  41  0.200  0.900  0.503- 140 2.11 123 2.11 139 2.11 120 2.11 141 2.11
  42  0.300  0.800  0.503- 136 2.11 139 2.11 140 2.11 159 2.11 142 2.11
  43  0.400  0.000  0.407- 126 2.11 145 2.11 146 2.11 161 2.11 143 2.11
  44  0.500  0.100  0.407- 145 2.11 146 2.11 150 2.11 165 2.11 144 2.11
  45  0.400  0.100  0.503- 124 2.11 143 2.11 144 2.11 147 2.11 145 2.11
  46  0.500  0.000  0.503- 143 2.11 144 2.11 160 2.11 163 2.11 146 2.11
  47  0.400  0.200  0.407- 149 2.11 145 2.11 130 2.11 150 2.11 147 2.11
  48  0.500  0.300  0.407- 150 2.11 149 2.11 154 2.11 169 2.11 148 2.11
  49  0.400  0.300  0.503- 147 2.11 128 2.11 148 2.11 151 2.11 149 2.11
  50  0.500  0.200  0.503- 148 2.11 147 2.11 144 2.11 167 2.11 150 2.11
  51  0.400  0.400  0.407- 134 2.11 149 2.11 153 2.11 154 2.11 151 2.11
  52  0.500  0.500  0.407- 153 2.11 154 2.11 158 2.11 173 2.11 152 2.11
  53  0.400  0.500  0.503- 132 2.11 151 2.11 152 2.11 155 2.11 153 2.11
  54  0.500  0.400  0.503- 148 2.11 151 2.11 152 2.11 171 2.11 154 2.11
  55  0.400  0.600  0.407- 138 2.11 153 2.11 157 2.11 158 2.11 155 2.11
  56  0.500  0.700  0.407- 162 2.11 158 2.11 157 2.11 177 2.11 156 2.11
  57  0.400  0.700  0.503- 159 2.11 155 2.11 156 2.11 136 2.11 157 2.11
  58  0.500  0.600  0.503- 152 2.11 155 2.11 156 2.11 175 2.11 158 2.11
  59  0.400  0.800  0.407- 157 2.11 142 2.11 161 2.11 162 2.11 159 2.11
  60  0.500  0.900  0.407- 146 2.11 161 2.11 162 2.11 181 2.11 160 2.11
[...]
 188  0.900  0.300  0.503-  90 2.11  89 2.11   9 2.11  94 2.11  88 2.11
 189  0.800  0.300  0.407-  68 2.11  87 2.11  88 2.11  91 2.11  89 2.11
 190  0.900  0.200  0.407-  88 2.11  84 2.11  87 2.11   7 2.11  90 2.11
 191  0.800  0.400  0.503-  74 2.11  89 2.11  93 2.11  94 2.11  91 2.11
 192  0.900  0.500  0.503-  13 2.11  93 2.11  94 2.11  98 2.11  92 2.11
 193  0.800  0.500  0.407-  72 2.11  91 2.11  92 2.11  95 2.11  93 2.11
 194  0.900  0.400  0.407-  11 2.11  88 2.11  91 2.11  92 2.11  94 2.11
 195  0.800  0.600  0.503-  78 2.11  93 2.11  97 2.11  98 2.11  95 2.11
 196  0.900  0.700  0.503- 102 2.11  97 2.11  98 2.11  17 2.11  96 2.11
 197  0.800  0.700  0.407-  76 2.11  99 2.11  96 2.11  95 2.11  97 2.11
 198  0.900  0.600  0.407-  15 2.11  92 2.11  95 2.11  96 2.11  98 2.11
 199  0.800  0.800  0.503-  82 2.11  97 2.11 101 2.11 102 2.11  99 2.11
 200  0.900  0.900  0.503-  21 2.11  86 2.11 101 2.11 102 2.11 100 2.11
 201  0.800  0.900  0.407-  80 2.11  83 2.11  99 2.11 100 2.11 101 2.11
 202  0.900  0.800  0.407-  96 2.11  19 2.11  99 2.11 100 2.11 102 2.11

  LATTYP: Found a simple tetragonal cell.
 ALAT       =    21.1388521970
 C/A-ratio  =     1.0461251639

  Lattice vectors:

 A1 = (  21.1388521970,   0.0000000000,   0.0000000000)
 A2 = (   0.0000000000,  21.1388521970,   0.0000000000)
 A3 = (   0.0000000000,   0.0000000000,  22.1138852197)

Analysis of symmetry for initial positions (statically):
 Subroutine PRICEL returns:
 Original cell was already a primitive cell.

 Routine SETGRP: Setting up the symmetry group for a
 simple tetragonal supercell.

 Subroutine GETGRP returns: Found  4 space group operations
 (whereof  1 operations were pure point group operations)
 out of a pool of 16 trial point group operations.

The static configuration has the point symmetry C_1 .
 The point group associated with its full space group is C_2v.

Analysis of symmetry for dynamics (positions and initial velocities):
 Subroutine PRICEL returns:
 Original cell was already a primitive cell.

 Routine SETGRP: Setting up the symmetry group for a
 simple tetragonal supercell.

 Subroutine GETGRP returns: Found  4 space group operations
 (whereof  1 operations were pure point group operations)
 out of a pool of 16 trial point group operations.

The dynamic configuration has the point symmetry C_1 .
 The point group associated with its full space group is C_2v.

 Subroutine INISYM returns: Found  4 space group operations
 (whereof  1 operations are pure point group operations),
 and found     1 'primitive' translations

                                     Primitive cell

  volume of cell :    9881.6133

  direct lattice vectors                    reciprocal lattice vectors
    21.138852197  0.000000000  0.000000000     0.047306258  0.000000000  0.000000000
     0.000000000 21.138852197  0.000000000     0.000000000  0.047306258  0.000000000
     0.000000000  0.000000000 22.113885220     0.000000000  0.000000000  0.045220457

  length of vectors
    21.138852197 21.138852197 22.113885220     0.047306258  0.047306258  0.045220457

  position of ions in fractional coordinates (direct lattice)
     0.537531089  0.562468875  0.614848637
     0.462468911  0.637531053  0.614848637
     0.000000000  0.000000000  0.406984115
     0.100000000  0.100000000  0.406984115
     0.000000000  0.100000000  0.502574971
     0.100000000  0.000000000  0.502574971
     0.000000000  0.200000000  0.406984115
     0.100000000  0.300000000  0.406984115
     0.000000000  0.300000000  0.502574971
     0.100000000  0.200000000  0.502574971
     0.000000000  0.400000000  0.406984115
     0.100000000  0.500000000  0.406984115
[...]
  501                  map_gather                            0.006833                  6   8
  502                  m_alltoallv_z                         0.039192                  6   8
  503                  map_scatter                           0.003961                  6   8
  504          m_sumb_d                              0.000889                          3   4
  505        fortau                                0.552976                            1   3
  506          m_sumb_d                              0.001220                          1   4
  507        forhar                                0.545801                            1   3
  508          m_sumb_d                              0.002211                          1   4
  509        strehar                               0.018002                            1   3
  510          m_sumb_d                              0.005394                          1   4
  511        m_bcast_d                             0.000682                            2   3
  512      potlok                                0.086511                              1   2
  513        fft3d_mpi                             0.057775                            5   3
  514          fftbrc_mpi                            0.053468                          5   4
  515            fftbas_plan_mpi                       0.053451                        5   5
  516              dfftw_execute                         0.017479                     15   6
  517              map_backward                          0.012645                      4   6
  518                map_gather                            0.002231                    2   7
  519                m_alltoallv_z                         0.009114                    2   7
  520                map_scatter                           0.001252                    2   7
  521              map_forward                           0.019301                      6   6
  522                map_gather                            0.001254                    4   7
  523                m_alltoallv_z                         0.011425                    4   7
  524                map_scatter                           0.006453                    4   7
  525        m_sumb_d                              0.000612                            2   3
  526        fewald                                0.001318                            2   3
  527          rsp                                   0.001209                          2   4
  528          rcp                                   0.000094                          2   4
  529        pothar                                0.002115                            1   3
  530          m_sumb_d                              0.000602                          1   4
  531        m_bcast_d                             0.008676                            1   3
  532      potlok_metagga                        2.011782                              1   2
  533        fft3d_mpi                             0.210699                           17   3
  534          fftbrc_mpi                            0.197996                         17   4
  535            fftbas_plan_mpi                       0.197937                       17   5
  536              dfftw_execute                         0.053345                     51   6
  537              map_forward                           0.077837                     22   6
  538                map_gather                            0.005208                   13   7
  539                m_alltoallv_z                         0.054741                   13   7
  540                map_scatter                           0.017638                   13   7
  541              map_backward                          0.054097                     12   6
  542                map_gather                            0.006560                    6   7
  543                m_alltoallv_z                         0.043238                    6   7
  544                map_scatter                           0.004183                    6   7
  545        m_sumb_d                              0.000437                            3   3
  546        m_bcast_d                             0.015829                            2   3
  547      set_dd_magatom                        0.000001                              1   2
  548      set_dd_paw                            4.874811                              1   2
  549        set_rsgf_all                          0.000002                            1   3
  550        m_sumb_d                              4.874615                            7   3

 Flat profile

 set_kineden                           880.168778          78
 m_sumb_d                              446.447978       16306
 dfftw_execute                         404.837086      136911
 m_alltoall_d                          175.210092       30491
 edwav                                 136.978889          58
 potlok_metagga                        118.962808          60
 set_charge                            105.973518          59
 map_scatter                            76.000218       45954
 map_gather                             67.051204       45954
 total_time                             53.156864           1
 m_alltoallv_z                          48.901324       45954
 fftwav_mpi                             43.913374       24953
 lincom                                 35.086847         181
 map_forward                            33.120450       51800
 kinhamil_tau                           27.975586        4568
 fftbas_plan_mpi                        27.223588       45637
 orth1                                  19.323203        3876
 eddav                                  17.211543           5
 eccp_tau                               11.354973        3267
 fftext_mpi                              6.923631       19055
 choleski                                5.915902          59
 ggemm                                   5.340963         626
 m_bcast_z                               5.307402        1382
 lapack                                  3.977118         491
 vhamil                                  2.945198        1301
 pw_charge                               2.809906        1357
 eddiag                                  2.551822          30
 crrexp_mul_work_add                     2.528370      257348
 rpro1                                   2.165959        1139
 crrexp_mul_wave                         1.960863      300980
 potxc_metagga                           1.796465           1
 augmentation_charge                     1.711242          59
 racc0                                   1.562793         783
 setdij_                                 1.556941          87
 m_bcast_d                               1.556696        1167
 fft3d_mpi                               1.503933       45637
 w1_dscal                                1.202215         783
 rspher_all                              1.187368          14
 redis_pw                                1.186630        4682
 potlok                                  1.025862          60
 gemm                                    0.991768       99182
 phaser                                  0.969369          47
 fortau                                  0.551756           1
 forloc                                  0.547812           1
 elmin_all                               0.544196           1
 forhar                                  0.543590           1
 map_backward                            0.383690       39474
 racc0mu                                 0.379208         491
 rpromu_gemm                             0.361461       18382
 stufak                                  0.328018           1
 stretau                                 0.240886           1
 soft_charge                             0.192013          59
 orthch                                  0.180875          59
 w1_copy                                 0.165422        1473
 fftbas_mpi                              0.159157       44008
 redis_proj                              0.156414        4697
 rpromu                                  0.150767          91
 overl                                   0.148844        1748
 pothar                                  0.088496          60
 rsp                                     0.077528         121
 apply_precond                           0.052076         356
 inisym                                  0.050282           1
 setup_precond                           0.049759         135
 fft_gq                                  0.043143          59
 depsum                                  0.035096          59
 set_dd_paw                              0.027605          61
 overl1                                  0.022695         491
 force_and_stress                        0.016094           1
 densta                                  0.015333          70
 strehar                                 0.012608           1
 brgrid                                  0.012300           1
 hamiltmu_tau                            0.011411         491
 hamilt_local_tau                        0.010709         810
 strelo                                  0.010617           1
 newband                                 0.007117         496
 fewald                                  0.006969         121
 rpro_isp                                0.006933          13
 rcp                                     0.006711         121
 strnlr                                  0.006483           1
 fftbrc_mpi                              0.005892        1629
 strkin                                  0.005726           1
 raccmu_                                 0.005620         491
 fornlr                                  0.002323           1
 w1_projall                              0.002066         356
 posmap                                  0.000903           2
 truncate_high_frequency_w1              0.000666         626
 fordep                                  0.000529           1
 redis_pw_all                            0.000471          58
 redis_pw_over_bands                     0.000236          59
 crpa_reader                             0.000231           1
 set_rsgf_all                            0.000182          61
 proall                                  0.000114           1
 vectorpot                               0.000033           1
 rotate_active_occupied_orbital          0.000019           1
 set_dd_magatom                          0.000013           2
 shift_bands_between_low_high            0.000010           1
  summed up times    2793.20584511757

 Accumulative profile

 total_time                           2793.205845           1
 elmin_all                            2657.167431           1
 set_kineden                          1089.033390          78
 edwav                                 770.459242          58
 fft3d_mpi                             659.186541       45637
 fftbas_plan_mpi                       657.517559       45637
 fftbas_mpi                            638.193618       44008
 kinhamil_tau                          515.280610        4568
 m_sumb_d                              446.447978       16306
 fftwav_mpi                            421.601246       24953
 dfftw_execute                         404.837086      136911
 eccp_tau                              379.939365        3267
 set_dd_paw                            296.866788          61
 fftext_mpi                            267.610776       19055
 m_alltoall_d                          175.210092       30491
 redis_pw                              155.846621        4682
 set_charge                            150.260962          59
 eddav                                 144.121920           5
 map_forward                           140.580706       51800
 potlok_metagga                        132.905245          60
 eddiag                                128.833175          30
 hamilt_local_tau                       93.490864         810
 map_backward                           84.876179       39474
 map_scatter                            76.000218       45954
 force_and_stress                       69.013820           1
 map_gather                             67.051204       45954
 hamiltmu_tau                           58.912252         491
 stretau                                51.300117           1
 m_alltoallv_z                          48.901324       45954
 lincom                                 35.086847         181
 soft_charge                            30.342663          59
 orthch                                 27.301893          59
 redis_proj                             20.706515        4697
 fftbrc_mpi                             19.488990        1629
 orth1                                  19.323203        3876
 newband                                18.359800         496
 rpro_isp                                7.038882          13
 strnlr                                  6.458189           1
 choleski                                5.915902          59
 potlok                                  5.425849          60
 ggemm                                   5.340963         626
 m_bcast_z                               5.307402        1382
 rpro1                                   4.135926        1139
 lapack                                  3.977118         491
 racc0                                   3.243618         783
 vhamil                                  2.945198        1301
 pw_charge                               2.809906        1357
 crrexp_mul_work_add                     2.528370      257348
 raccmu_                                 2.481906         491
 racc0mu                                 2.453591         491
 augmentation_charge                     2.429146          59
 fornlr                                  2.170764           1
 potxc_metagga                           1.961950           1
 crrexp_mul_wave                         1.960863      300980
 setdij_                                 1.887805          87
 redis_pw_over_bands                     1.887189          59
 redis_pw_all                            1.886954          58
 m_bcast_d                               1.556696        1167
 w1_projall                              1.282302         356
 w1_dscal                                1.202215         783
 rspher_all                              1.187368          14
 rpromu                                  1.062415          91
 gemm                                    0.991768       99182
 phaser                                  0.969369          47
 fft_gq                                  0.687552          59
 proall                                  0.607622           1
 fortau                                  0.552976           1
 forloc                                  0.550372           1
 forhar                                  0.545801           1
 rpromu_gemm                             0.361461       18382
 stufak                                  0.328018           1
 w1_copy                                 0.165422        1473
 overl                                   0.148844        1748
 depsum                                  0.148166          59
 pothar                                  0.142798          60
 fordep                                  0.123840           1
 densta                                  0.123066          70
 fewald                                  0.097635         121
 rsp                                     0.077528         121
 setup_precond                           0.059277         135
 apply_precond                           0.052076         356
 inisym                                  0.051185           1
 overl1                                  0.022695         491
 strehar                                 0.018002           1
 brgrid                                  0.012300           1
 strelo                                  0.011868           1
 strkin                                  0.011222           1
 rcp                                     0.006711         121
 posmap                                  0.000903           2
 truncate_high_frequency_w1              0.000666         626
 crpa_reader                             0.000231           1
 set_rsgf_all                            0.000182          61
 vectorpot                               0.000033           1
 rotate_active_occupied_orbital          0.000019           1
 set_dd_magatom                          0.000013           2
 shift_bands_between_low_high            0.000010           1

Profiling took   1.073772  0.467563  0.008246  0.006996 seconds
Profiling took   1.432282 seconds