 vasp.6.3.2 27Jun22 (build Jan 05 2024 11:34:19) complex

 executed on           IFC15_impi date 2024.01.09  02:51:26

 INCAR:
   SYSTEM = MgO-rocksalt
   ISMEAR = 0
   SIGMA = 0.05
   EDIFF = 1E-6
   ALGO = ALL
   ISTART = 0
   IBRION = -1
   NSW = 0
   ISYM = 2
   DIPOL = 0.5 0.5 0.5
   IDIPOL = 3
   LDIPOL = .TRUE.
   METAGGA = M06L
   ENCUT = 520
   PREC = Accurate
   LASPH = .TRUE.
   LREAL = Auto
   ISPIN = 1
   NELM = 2000
   NELMIN = 8
   NCORE = 8
   LWAVE = .FALSE.
   LCHARG = .FALSE.

 POTCAR:    PAW_PBE Cu 22Jun2005
 POTCAR:    PAW_PBE Mg_pv 13Apr2007
 POTCAR:    PAW_PBE O 08Apr2002
 POTCAR:    PAW_PBE Cu 22Jun2005
   VRHFIN =Cu: d10 p1

   TITEL  = PAW_PBE Cu 22Jun2005
   POMASS =   63.546; ZVAL   =   11.000    mass and valenz
   ENMAX  =  295.446; ENMIN  =  221.585 eV

   TITEL  = PAW_PBE Mg_pv 13Apr2007
   POMASS =   24.305; ZVAL   =    8.000    mass and valenz
   ENMAX  =  403.929; ENMIN  =  302.947 eV

   TITEL  = PAW_PBE O 08Apr2002
   POMASS =   16.000; ZVAL   =    6.000    mass and valenz
   ENMAX  =  400.000; ENMIN  =  300.000 eV

 Optimization of the real space projectors (new method)

 maximal supplied QI-value         = 16.25
 optimisation between [QCUT,QGAM] = [ 11.54, 23.24] = [ 37.28,151.24] Ry
 Optimized for a Real-space Cutoff    1.53 Angstroem

   l    n(q)    QCUT    max X(q) W(low)/X(q) W(high)/X(q)  e(spline)
   2     10    11.539     4.610    0.96E-04    0.13E-03    0.19E-06
   2     10    11.539     8.522    0.16E-03    0.21E-03    0.28E-06
   0     11    11.539    51.609    0.45E-04    0.31E-04    0.11E-06
   0     11    11.539    27.747    0.39E-04    0.29E-04    0.10E-06
   1     10    11.539    20.408    0.70E-05    0.38E-04    0.18E-06
   1     10    11.539    13.425    0.66E-05    0.34E-04    0.17E-06
 Optimization of the real space projectors (new method)

[...]

   l    n(q)    QCUT    max X(q) W(low)/X(q) W(high)/X(q)  e(spline)
   1      8    11.527     2.974    0.44E-04    0.56E-04    0.12E-06
   1      8    11.527     4.279    0.12E-03    0.12E-03    0.26E-06
   0      9    11.527    16.381    0.46E-04    0.64E-04    0.78E-07
   0      9    11.527     5.611    0.26E-04    0.43E-04    0.55E-07
   2      8    11.527     4.652    0.22E-03    0.72E-04    0.47E-07
 Optimization of the real space projectors (new method)

 maximal supplied QI-value         = 24.76
 optimisation between [QCUT,QGAM] = [ 11.64, 23.27] = [ 37.91,151.63] Ry
 Optimized for a Real-space Cutoff    1.14 Angstroem

   l    n(q)    QCUT    max X(q) W(low)/X(q) W(high)/X(q)  e(spline)
   0      8    11.635    20.381    0.10E-03    0.33E-03    0.24E-06
   0      8    11.635    15.268    0.11E-03    0.35E-03    0.26E-06
   1      7    11.635     5.964    0.24E-03    0.31E-03    0.30E-06
   1      7    11.635     5.382    0.22E-03    0.25E-03    0.26E-06
  PAW_PBE Cu 22Jun2005                  :
  PAW_PBE Mg_pv 13Apr2007               :
  PAW_PBE O 08Apr2002                   :

 POSCAR: Cu Mg  O
  positions in direct lattice
  velocities in cartesian coordinates

 METAGGA = M06L     LMAXTAU =  6    LMIXTAU =  F

 VTST: version 4.1, (05/19/21)

 CHAIN: initializing optimizer

 OPT: Using VASP Dynamics algorithm
 CHAIN: Read ICHAIN            0

 POSCAR: Cu Mg  O
  positions in direct lattice
  velocities in cartesian coordinates

 ion  position               nearest neighbor table
   1  0.400  0.558  0.598- 157 2.29   3 2.35  55 2.43   4 2.47
   2  0.400  0.499  0.790-   3 2.25
   3  0.400  0.499  0.688-   2 2.25   1 2.35   4 2.35
   4  0.400  0.441  0.597- 153 2.26   3 2.35  55 2.43   1 2.47
   5  0.000  0.000  0.407- 107 2.11 108 2.11 123 2.11 188 2.11 105 2.11
   6  0.100  0.100  0.407- 107 2.11 108 2.11 112 2.11 127 2.11 106 2.11
   7  0.000  0.100  0.503- 105 2.11 106 2.11 109 2.11 186 2.11 107 2.11
   8  0.100  0.000  0.503- 105 2.11 106 2.11 122 2.11 125 2.11 108 2.11
   9  0.000  0.200  0.407- 111 2.11 107 2.11 112 2.11 192 2.11 109 2.11
  10  0.100  0.300  0.407- 112 2.11 111 2.11 116 2.11 131 2.11 110 2.11
  11  0.000  0.300  0.503- 109 2.11 110 2.11 113 2.11 190 2.11 111 2.11
  12  0.100  0.200  0.503- 110 2.11 109 2.11 106 2.11 129 2.11 112 2.11
  13  0.000  0.400  0.407- 111 2.11 115 2.11 116 2.11 196 2.11 113 2.11
  14  0.100  0.500  0.407- 115 2.11 116 2.11 120 2.11 135 2.11 114 2.11
  15  0.000  0.500  0.503- 113 2.11 114 2.11 117 2.11 194 2.11 115 2.11
  16  0.100  0.400  0.503- 110 2.11 113 2.11 114 2.11 133 2.11 116 2.11
  17  0.000  0.600  0.407- 115 2.11 119 2.11 120 2.11 200 2.11 117 2.11
  18  0.100  0.700  0.407- 124 2.11 120 2.11 119 2.11 139 2.11 118 2.11
  19  0.000  0.700  0.503- 121 2.11 118 2.11 117 2.11 198 2.11 119 2.11
  20  0.100  0.600  0.503- 114 2.11 117 2.11 118 2.11 137 2.11 120 2.11
  21  0.000  0.800  0.407- 119 2.11 123 2.11 124 2.11 204 2.11 121 2.11
  22  0.100  0.900  0.407- 108 2.11 123 2.11 124 2.11 143 2.11 122 2.11
  23  0.000  0.900  0.503- 105 2.11 121 2.11 122 2.11 202 2.11 123 2.11
  24  0.100  0.800  0.503- 118 2.11 121 2.11 122 2.11 141 2.11 124 2.11
  25  0.200  0.000  0.407- 128 2.11 127 2.11 108 2.11 143 2.11 125 2.11
  26  0.300  0.100  0.407- 127 2.11 128 2.11 132 2.11 147 2.11 126 2.11
  27  0.200  0.100  0.503- 126 2.11 125 2.11 106 2.11 129 2.11 127 2.11
  28  0.300  0.000  0.503- 125 2.11 126 2.11 142 2.11 145 2.11 128 2.11
  29  0.200  0.200  0.407- 131 2.11 132 2.11 112 2.11 127 2.11 129 2.11
  30  0.300  0.300  0.407- 131 2.11 132 2.11 136 2.11 151 2.11 130 2.11
  31  0.200  0.300  0.503- 129 2.11 130 2.11 110 2.11 133 2.11 131 2.11
  32  0.300  0.200  0.503- 129 2.11 130 2.11 126 2.11 149 2.11 132 2.11
  33  0.200  0.400  0.407- 136 2.11 131 2.11 135 2.11 116 2.11 133 2.11
  34  0.300  0.500  0.407- 135 2.11 136 2.11 140 2.11 155 2.11 134 2.11
  35  0.200  0.500  0.503- 134 2.11 133 2.11 114 2.11 137 2.11 135 2.11
  36  0.300  0.400  0.503- 133 2.11 130 2.11 134 2.11 153 2.11 136 2.11
  37  0.200  0.600  0.407- 140 2.11 135 2.11 139 2.11 120 2.11 137 2.11
  38  0.300  0.700  0.407- 139 2.11 144 2.11 140 2.11 159 2.11 138 2.11
  39  0.200  0.700  0.503- 138 2.11 141 2.11 118 2.11 137 2.11 139 2.11
  40  0.300  0.600  0.503- 137 2.11 134 2.11 138 2.11 157 2.11 140 2.11
  41  0.200  0.800  0.407- 139 2.11 144 2.11 143 2.11 124 2.11 141 2.11
  42  0.300  0.900  0.407- 143 2.11 128 2.11 144 2.11 163 2.11 142 2.11
  43  0.200  0.900  0.503- 142 2.11 125 2.11 141 2.11 122 2.11 143 2.11
  44  0.300  0.800  0.503- 138 2.11 141 2.11 142 2.11 161 2.11 144 2.11
  45  0.400  0.000  0.407- 128 2.11 147 2.11 148 2.11 163 2.11 145 2.11
  46  0.500  0.100  0.407- 147 2.11 148 2.11 152 2.11 167 2.11 146 2.11
  47  0.400  0.100  0.503- 126 2.11 145 2.11 146 2.11 149 2.11 147 2.11
  48  0.500  0.000  0.503- 145 2.11 146 2.11 162 2.11 165 2.11 148 2.11
  49  0.400  0.200  0.407- 151 2.11 147 2.11 132 2.11 152 2.11 149 2.11
  50  0.500  0.300  0.407- 152 2.11 151 2.11 156 2.11 171 2.11 150 2.11
  51  0.400  0.300  0.503- 149 2.11 130 2.11 150 2.11 153 2.11 151 2.11
  52  0.500  0.200  0.503- 150 2.11 149 2.11 146 2.11 169 2.11 152 2.11
  53  0.400  0.400  0.407- 136 2.11 151 2.11 155 2.11 156 2.11 153 2.11
  54  0.500  0.500  0.407- 155 2.11 156 2.11 160 2.11 175 2.11 154 2.11
  55  0.400  0.500  0.503- 134 2.11 153 2.11 154 2.11 157 2.11 155 2.11   4 2.43   1 2.43
  56  0.500  0.400  0.503- 150 2.11 153 2.11 154 2.11 173 2.11 156 2.11
  57  0.400  0.600  0.407- 140 2.11 155 2.11 159 2.11 160 2.11 157 2.11
  58  0.500  0.700  0.407- 164 2.11 160 2.11 159 2.11 179 2.11 158 2.11
  59  0.400  0.700  0.503- 161 2.11 157 2.11 158 2.11 138 2.11 159 2.11
  60  0.500  0.600  0.503- 154 2.11 157 2.11 158 2.11 177 2.11 160 2.11
[...]
 190  0.900  0.300  0.503-  92 2.11  91 2.11  11 2.11  96 2.11  90 2.11
 191  0.800  0.300  0.407-  70 2.11  89 2.11  90 2.11  93 2.11  91 2.11
 192  0.900  0.200  0.407-  90 2.11  86 2.11  89 2.11   9 2.11  92 2.11
 193  0.800  0.400  0.503-  76 2.11  91 2.11  95 2.11  96 2.11  93 2.11
 194  0.900  0.500  0.503-  15 2.11  95 2.11  96 2.11 100 2.11  94 2.11
 195  0.800  0.500  0.407-  74 2.11  93 2.11  94 2.11  97 2.11  95 2.11
 196  0.900  0.400  0.407-  13 2.11  90 2.11  93 2.11  94 2.11  96 2.11
 197  0.800  0.600  0.503-  80 2.11  95 2.11  99 2.11 100 2.11  97 2.11
 198  0.900  0.700  0.503- 104 2.11  99 2.11 100 2.11  19 2.11  98 2.11
 199  0.800  0.700  0.407-  78 2.11 101 2.11  98 2.11  97 2.11  99 2.11
 200  0.900  0.600  0.407-  17 2.11  94 2.11  97 2.11  98 2.11 100 2.11
 201  0.800  0.800  0.503-  84 2.11  99 2.11 103 2.11 104 2.11 101 2.11
 202  0.900  0.900  0.503-  23 2.11  88 2.11 103 2.11 104 2.11 102 2.11
 203  0.800  0.900  0.407-  82 2.11  85 2.11 101 2.11 102 2.11 103 2.11
 204  0.900  0.800  0.407-  98 2.11  21 2.11 101 2.11 102 2.11 104 2.11

  LATTYP: Found a simple tetragonal cell.
 ALAT       =    21.1388521970
 C/A-ratio  =     1.0461251639

  Lattice vectors:

 A1 = (  21.1388521970,   0.0000000000,   0.0000000000)
 A2 = (   0.0000000000,  21.1388521970,   0.0000000000)
 A3 = (   0.0000000000,   0.0000000000,  22.1138852197)

Analysis of symmetry for initial positions (statically):
 Subroutine PRICEL returns:
 Original cell was already a primitive cell.

 Routine SETGRP: Setting up the symmetry group for a
 simple tetragonal supercell.

 Subroutine GETGRP returns: Found  1 space group operations
 (whereof  1 operations were pure point group operations)
 out of a pool of 16 trial point group operations.

The static configuration has the point symmetry C_1 .

Analysis of symmetry for dynamics (positions and initial velocities):
 Subroutine PRICEL returns:
 Original cell was already a primitive cell.

[...]

The dynamic configuration has the point symmetry C_1 .

Analysis of constrained symmetry for selective dynamics:
 Subroutine PRICEL returns:
 Original cell was already a primitive cell.

 Routine SETGRP: Setting up the symmetry group for a
 simple tetragonal supercell.

 Subroutine GETGRP returns: Found  1 space group operations
 (whereof  1 operations were pure point group operations)
 out of a pool of 16 trial point group operations.

The constrained configuration has the point symmetry C_1 .

 Subroutine INISYM returns: Found  1 space group operations
 (whereof  1 operations are pure point group operations),
 and found     1 'primitive' translations

                                     Primitive cell

  volume of cell :    9881.6133

  direct lattice vectors                    reciprocal lattice vectors
    21.138852197  0.000000000  0.000000000     0.047306258  0.000000000  0.000000000
     0.000000000 21.138852197  0.000000000     0.000000000  0.047306258  0.000000000
     0.000000000  0.000000000 22.113885220     0.000000000  0.000000000  0.045220457

  length of vectors
    21.138852197 21.138852197 22.113885220     0.047306258  0.047306258  0.045220457

  position of ions in fractional coordinates (direct lattice)
     0.399799103  0.557704010  0.597819508
     0.399656041  0.499161715  0.789905234
     0.399599063  0.498964654  0.687952686
     0.399792629  0.441052696  0.597113492
     0.000000000  0.000000000  0.406984115
     0.100000000  0.100000000  0.406984115
     0.000000000  0.100000000  0.502574971
     0.100000000  0.000000000  0.502574971
[...]
  500                  m_alltoallv_z                         0.118523                  6   8
  501                  map_scatter                           0.003758                  6   8
  502          m_sumb_d                              0.000378                          3   4
  503        fortau                                0.560021                            1   3
  504          m_sumb_d                              0.001169                          1   4
  505        forhar                                0.552701                            1   3
  506          m_sumb_d                              0.000177                          1   4
  507        strehar                               0.013060                            1   3
  508          m_sumb_d                              0.000746                          1   4
  509        m_bcast_d                             0.009034                            2   3
  510      potlok                                0.084555                              1   2
  511        fft3d_mpi                             0.060134                            5   3
  512          fftbrc_mpi                            0.055888                          5   4
  513            fftbas_plan_mpi                       0.055875                        5   5
  514              dfftw_execute                         0.017652                     15   6
  515              map_backward                          0.013183                      4   6
  516                map_gather                            0.002225                    2   7
  517                m_alltoallv_z                         0.009665                    2   7
  518                map_scatter                           0.001247                    2   7
  519              map_forward                           0.021597                      6   6
  520                map_gather                            0.001224                    4   7
  521                m_alltoallv_z                         0.013938                    4   7
  522                map_scatter                           0.006364                    4   7
  523        m_sumb_d                              0.000521                            2   3
  524        fewald                                0.001294                            2   3
  525          rsp                                   0.001189                          2   4
  526          rcp                                   0.000092                          2   4
  527        pothar                                0.001681                            1   3
  528          m_sumb_d                              0.000177                          1   4
  529        m_bcast_d                             0.006082                            1   3
  530      potlok_metagga                        2.082051                              1   2
  531        fft3d_mpi                             0.287014                           17   3
  532          fftbrc_mpi                            0.274449                         17   4
  533            fftbas_plan_mpi                       0.274397                       17   5
  534              dfftw_execute                         0.054130                     51   6
  535              map_forward                           0.070531                     22   6
  536                map_gather                            0.005160                   13   7
  537                m_alltoallv_z                         0.050647                   13   7
  538                map_scatter                           0.014480                   13   7
  539              map_backward                          0.136827                     12   6
  540                map_gather                            0.006611                    6   7
  541                m_alltoallv_z                         0.126246                    6   7
  542                map_scatter                           0.003851                    6   7
  543        m_sumb_d                              0.000400                            3   3
  544        m_bcast_d                             0.011795                            2   3
  545      set_dd_magatom                        0.000001                              1   2
  546      set_dd_paw                            5.099314                              1   2
  547        set_rsgf_all                          0.000002                            1   3
  548        m_sumb_d                              5.099116                            7   3
  549      m_bcast_d                             0.000395                              2   2

 Flat profile

 dfftw_execute                         420.206964      141888
 m_sumb_d                              330.596608       16786
 edwav                                 166.494877          58
 potlok_metagga                        118.534493          60
 map_scatter                            78.388810       47613
 map_gather                             69.364895       47613
 m_alltoallv_z                          55.373959       47613
 total_time                             54.211037           1
 fftwav_mpi                             45.186005       25871
 lincom                                 37.559290         181
 map_forward                            34.171609       53636
 kinhamil_tau                           29.003930        4746
 fftbas_plan_mpi                        28.026076       47296
 orth1                                  20.935079        4046
 m_alltoall_d                           20.022157       31682
 eddav                                  19.181719           5
 set_kineden                            17.264522          78
 eccp_tau                               11.718147        3388
 fftext_mpi                              7.191554       19796
 choleski                                6.401345          59
 ggemm                                   5.854033         658
 m_bcast_z                               5.491751        1442
 lapack                                  4.245404         518
 vhamil                                  3.058528        1358
 eddiag                                  3.036296          30
 pw_charge                               2.787555        1357
 crrexp_mul_work_add                     2.673707      271320
 rpro1                                   2.437939        1190
 crrexp_mul_wave                         2.088410      317016
 potxc_metagga                           1.798688           1
 racc0                                   1.739109         812
 setdij_                                 1.550254          87
 fft3d_mpi                               1.516450       47296
 m_bcast_d                               1.414296        1220
 augmentation_charge                     1.376671          59
 w1_dscal                                1.262407         812
 redis_pw                                1.230319        4876
 rspher_all                              1.206774          14
 gemm                                    1.100411      105672
 phaser                                  0.983819          47
 potlok                                  0.835194          60
 fortau                                  0.558852           1
 forhar                                  0.552524           1
 forloc                                  0.547398           1
 elmin_all                               0.458249           1
 racc0mu                                 0.404403         518
 map_backward                            0.390632       40956
 rpromu_gemm                             0.388099       18564
 stufak                                  0.331713           1
 stretau                                 0.238936           1
 w1_copy                                 0.171780        1554
 redis_proj                              0.164878        4882
 fftbas_mpi                              0.161395       45667
 rpromu                                  0.157937          91
 overl                                   0.154852        1826
 soft_charge                             0.147170          59
 orthch                                  0.141555          59
 pothar                                  0.089286          60
 rsp                                     0.078200         121
 inisym                                  0.060477           1
 apply_precond                           0.055229         378
 setup_precond                           0.050244         140
 fft_gq                                  0.045265          59
 depsum                                  0.037214          59
 set_charge                              0.024896          59
 overl1                                  0.024601         518
 set_dd_paw                              0.018651          61
 densta                                  0.017348          70
 rpro_isp                                0.016590          13
 force_and_stress                        0.015656           1
 strehar                                 0.012314           1
 hamiltmu_tau                            0.012086         518
 hamilt_local_tau                        0.011346         840
 strelo                                  0.010373           1
 strnlr                                  0.007843           1
 newband                                 0.007570         523
 fewald                                  0.007056         121
 strkin                                  0.006904           1
 rcp                                     0.006428         121
 raccmu_                                 0.005762         518
 fftbrc_mpi                              0.005584        1629
 fornlr                                  0.002325           1
 w1_projall                              0.002107         378
 brgrid                                  0.001295           1
 truncate_high_frequency_w1              0.000648         658
 redis_pw_all                            0.000478          58
 fordep                                  0.000301           1
 crpa_reader                             0.000269           1
 redis_pw_over_bands                     0.000236          59
 set_rsgf_all                            0.000129          61
 posmap                                  0.000095           2
 proall                                  0.000054           1
 vectorpot                               0.000029           1
 rotate_active_occupied_orbital          0.000021           1
 set_dd_magatom                          0.000012           2
 shift_bands_between_low_high            0.000009           1
  summed up times    1623.12639498711

 Accumulative profile

 total_time                           1623.126395           1
 elmin_all                            1504.388092           1
 fft3d_mpi                             687.606374       47296
 fftbas_plan_mpi                       685.922945       47296
 edwav                                 676.555710          58
 fftbas_mpi                            663.068672       45667
 kinhamil_tau                          536.419844        4746
 fftwav_mpi                            436.907440       25871
 dfftw_execute                         420.206964      141888
 eccp_tau                              394.971719        3388
 m_sumb_d                              330.596608       16786
 set_dd_paw                            310.807395          61
 fftext_mpi                            278.725003       19796
 map_forward                           144.742435       53636
 eddav                                 139.561579           5
 potlok_metagga                        136.395590          60
 set_kineden                           132.155833          78
 eddiag                                116.062860          30
 hamilt_local_tau                       96.877824         840
 map_backward                           92.947470       40956
 map_scatter                            78.388810       47613
 map_gather                             69.364895       47613
 hamiltmu_tau                           62.453484         518
 m_alltoallv_z                          55.373959       47613
 force_and_stress                       50.200144           1
 lincom                                 37.559290         181
 stretau                                32.747760           1
 set_charge                             30.586675          59
 orthch                                 29.333627          59
 soft_charge                            28.314117          59
 fftbrc_mpi                             23.021252        1629
 orth1                                  20.935079        4046
 m_alltoall_d                           20.022157       31682
 newband                                19.054791         523
 redis_pw                               15.039698        4876
 rpro_isp                                7.308612          13
 choleski                                6.401345          59
 redis_proj                              6.377656        4882
 strnlr                                  6.026072           1
 ggemm                                   5.854033         658
 m_bcast_z                               5.491751        1442
 potlok                                  5.037983          60
 rpro1                                   4.574535        1190
 lapack                                  4.245404         518
 racc0                                   3.529994         812
 vhamil                                  3.058528        1358
 pw_charge                               2.787555        1357
 raccmu_                                 2.680170         518
 crrexp_mul_work_add                     2.673707      271320
 racc0mu                                 2.649807         518
 augmentation_charge                     2.143824          59
 crrexp_mul_wave                         2.088410      317016
 redis_pw_over_bands                     2.045809          59
 redis_pw_all                            2.045573          58
 potxc_metagga                           2.039778           1
 fornlr                                  2.022337           1
 setdij_                                 1.887767          87
 w1_projall                              1.428746         378
 m_bcast_d                               1.414296        1220
 w1_dscal                                1.262407         812
 rspher_all                              1.206774          14
 rpromu                                  1.120054          91
 gemm                                    1.100411      105672
 phaser                                  0.983819          47
 fft_gq                                  0.893455          59
 proall                                  0.627658           1
 forloc                                  0.560668           1
 fortau                                  0.560021           1
 forhar                                  0.552701           1
 rpromu_gemm                             0.388099       18564
 stufak                                  0.331713           1
 w1_copy                                 0.171780        1554
 overl                                   0.154852        1826
 fordep                                  0.123856           1
 densta                                  0.115095          70
 pothar                                  0.110728          60
 depsum                                  0.103838          59
 fewald                                  0.098480         121
 rsp                                     0.078200         121
 inisym                                  0.060572           1
 setup_precond                           0.057922         140
 apply_precond                           0.055229         378
 overl1                                  0.024601         518
 strehar                                 0.013060           1
 strkin                                  0.012307           1
 strelo                                  0.010818           1
 rcp                                     0.006428         121
 brgrid                                  0.001295           1
 truncate_high_frequency_w1              0.000648         658
 crpa_reader                             0.000269           1
 set_rsgf_all                            0.000129          61
 posmap                                  0.000095           2
 vectorpot                               0.000029           1
 rotate_active_occupied_orbital          0.000021           1
 set_dd_magatom                          0.000012           2
 shift_bands_between_low_high            0.000009           1

Profiling took   1.105088  0.488743  0.007556  0.006368 seconds
Profiling took   1.464267 seconds