 vasp.6.3.2 27Jun22 (build Jan 05 2024 11:34:19) complex

 executed on           IFC15_impi date 2024.01.09  02:51:13

 INCAR:
   SYSTEM = MgO-rocksalt
   ISMEAR = 0
   SIGMA = 0.05
   EDIFF = 1E-6
   ALGO = ALL
   ISTART = 0
   IBRION = -1
   NSW = 0
   ISYM = 2
   DIPOL = 0.5 0.5 0.5
   IDIPOL = 3
   LDIPOL = .TRUE.
   METAGGA = M06L
   ENCUT = 520
   PREC = Accurate
   LASPH = .TRUE.
   LREAL = Auto
   ISPIN = 1
   NELM = 2000
   NELMIN = 8
   NCORE = 8
   LWAVE = .FALSE.
   LCHARG = .FALSE.

 POTCAR:    PAW_PBE Au 04Oct2007
 POTCAR:    PAW_PBE Mg_pv 13Apr2007
 POTCAR:    PAW_PBE O 08Apr2002
 POTCAR:    PAW_PBE Au 04Oct2007
   VRHFIN =Au: s1d10

   TITEL  = PAW_PBE Au 04Oct2007
   POMASS =  196.966; ZVAL   =   11.000    mass and valenz
   ENMAX  =  229.943; ENMIN  =  172.457 eV

   TITEL  = PAW_PBE Mg_pv 13Apr2007
   POMASS =   24.305; ZVAL   =    8.000    mass and valenz
   ENMAX  =  403.929; ENMIN  =  302.947 eV

   TITEL  = PAW_PBE O 08Apr2002
   POMASS =   16.000; ZVAL   =    6.000    mass and valenz
   ENMAX  =  400.000; ENMIN  =  300.000 eV

 Optimization of the real space projectors (new method)

 maximal supplied QI-value         = 15.12
 optimisation between [QCUT,QGAM] = [ 11.64, 23.28] = [ 37.95,151.78] Ry
 Optimized for a Real-space Cutoff    1.49 Angstroem

   l    n(q)    QCUT    max X(q) W(low)/X(q) W(high)/X(q)  e(spline)
   2      9    11.641    60.898    0.24E-03    0.10E-03    0.19E-06
   2      9    11.641    58.894    0.25E-03    0.10E-03    0.19E-06
   0     10    11.641   109.617    0.73E-04    0.33E-04    0.11E-06
   0     10    11.641    75.026    0.71E-04    0.32E-04    0.11E-06
   1     10    11.641    16.344    0.27E-04    0.97E-04    0.16E-06
   1     10    11.641    10.160    0.23E-04    0.77E-04    0.13E-06
 Optimization of the real space projectors (new method)

[...]

   l    n(q)    QCUT    max X(q) W(low)/X(q) W(high)/X(q)  e(spline)
   1      8    11.527     2.974    0.44E-04    0.56E-04    0.12E-06
   1      8    11.527     4.279    0.12E-03    0.12E-03    0.26E-06
   0      9    11.527    16.381    0.46E-04    0.64E-04    0.78E-07
   0      9    11.527     5.611    0.26E-04    0.43E-04    0.55E-07
   2      8    11.527     4.652    0.22E-03    0.72E-04    0.47E-07
 Optimization of the real space projectors (new method)

 maximal supplied QI-value         = 24.76
 optimisation between [QCUT,QGAM] = [ 11.64, 23.27] = [ 37.91,151.63] Ry
 Optimized for a Real-space Cutoff    1.14 Angstroem

   l    n(q)    QCUT    max X(q) W(low)/X(q) W(high)/X(q)  e(spline)
   0      8    11.635    20.381    0.10E-03    0.33E-03    0.24E-06
   0      8    11.635    15.268    0.11E-03    0.35E-03    0.26E-06
   1      7    11.635     5.964    0.24E-03    0.31E-03    0.30E-06
   1      7    11.635     5.382    0.22E-03    0.25E-03    0.26E-06
  PAW_PBE Au 04Oct2007                  :
  PAW_PBE Mg_pv 13Apr2007               :
  PAW_PBE O 08Apr2002                   :

 POSCAR: Au Mg  O
  positions in direct lattice
  velocities in cartesian coordinates

 METAGGA = M06L     LMAXTAU =  6    LMIXTAU =  F

 VTST: version 4.1, (05/19/21)

 CHAIN: initializing optimizer

 OPT: Using VASP Dynamics algorithm
 CHAIN: Read ICHAIN            0

 POSCAR: Au Mg  O
  positions in direct lattice
  velocities in cartesian coordinates

 ion  position               nearest neighbor table
   1  0.404  0.596  0.665-   2 2.57   4 2.74
   2  0.332  0.668  0.602- 138 2.40   1 2.57  59 2.71  40 2.71
   3  0.568  0.432  0.602- 173 2.40   4 2.57  75 2.71  56 2.71
   4  0.496  0.504  0.665-   3 2.57   1 2.74
   5  0.000  0.000  0.407- 107 2.11 108 2.11 123 2.11 188 2.11 105 2.11
   6  0.100  0.100  0.407- 107 2.11 108 2.11 112 2.11 127 2.11 106 2.11
   7  0.000  0.100  0.503- 105 2.11 106 2.11 109 2.11 186 2.11 107 2.11
   8  0.100  0.000  0.503- 105 2.11 106 2.11 122 2.11 125 2.11 108 2.11
   9  0.000  0.200  0.407- 111 2.11 107 2.11 112 2.11 192 2.11 109 2.11
  10  0.100  0.300  0.407- 112 2.11 111 2.11 116 2.11 131 2.11 110 2.11
  11  0.000  0.300  0.503- 109 2.11 110 2.11 113 2.11 190 2.11 111 2.11
  12  0.100  0.200  0.503- 110 2.11 109 2.11 106 2.11 129 2.11 112 2.11
  13  0.000  0.400  0.407- 111 2.11 115 2.11 116 2.11 196 2.11 113 2.11
  14  0.100  0.500  0.407- 115 2.11 116 2.11 120 2.11 135 2.11 114 2.11
  15  0.000  0.500  0.503- 113 2.11 114 2.11 117 2.11 194 2.11 115 2.11
  16  0.100  0.400  0.503- 110 2.11 113 2.11 114 2.11 133 2.11 116 2.11
  17  0.000  0.600  0.407- 115 2.11 119 2.11 120 2.11 200 2.11 117 2.11
  18  0.100  0.700  0.407- 124 2.11 120 2.11 119 2.11 139 2.11 118 2.11
  19  0.000  0.700  0.503- 121 2.11 118 2.11 117 2.11 198 2.11 119 2.11
  20  0.100  0.600  0.503- 114 2.11 117 2.11 118 2.11 137 2.11 120 2.11
  21  0.000  0.800  0.407- 119 2.11 123 2.11 124 2.11 204 2.11 121 2.11
  22  0.100  0.900  0.407- 108 2.11 123 2.11 124 2.11 143 2.11 122 2.11
  23  0.000  0.900  0.503- 105 2.11 121 2.11 122 2.11 202 2.11 123 2.11
  24  0.100  0.800  0.503- 118 2.11 121 2.11 122 2.11 141 2.11 124 2.11
  25  0.200  0.000  0.407- 128 2.11 127 2.11 108 2.11 143 2.11 125 2.11
  26  0.300  0.100  0.407- 127 2.11 128 2.11 132 2.11 147 2.11 126 2.11
  27  0.200  0.100  0.503- 126 2.11 125 2.11 106 2.11 129 2.11 127 2.11
  28  0.300  0.000  0.503- 125 2.11 126 2.11 142 2.11 145 2.11 128 2.11
  29  0.200  0.200  0.407- 131 2.11 132 2.11 112 2.11 127 2.11 129 2.11
  30  0.300  0.300  0.407- 131 2.11 132 2.11 136 2.11 151 2.11 130 2.11
  31  0.200  0.300  0.503- 129 2.11 130 2.11 110 2.11 133 2.11 131 2.11
  32  0.300  0.200  0.503- 129 2.11 130 2.11 126 2.11 149 2.11 132 2.11
  33  0.200  0.400  0.407- 136 2.11 131 2.11 135 2.11 116 2.11 133 2.11
  34  0.300  0.500  0.407- 135 2.11 136 2.11 140 2.11 155 2.11 134 2.11
  35  0.200  0.500  0.503- 134 2.11 133 2.11 114 2.11 137 2.11 135 2.11
  36  0.300  0.400  0.503- 133 2.11 130 2.11 134 2.11 153 2.11 136 2.11
  37  0.200  0.600  0.407- 140 2.11 135 2.11 139 2.11 120 2.11 137 2.11
  38  0.300  0.700  0.407- 139 2.11 144 2.11 140 2.11 159 2.11 138 2.11
  39  0.200  0.700  0.503- 138 2.11 141 2.11 118 2.11 137 2.11 139 2.11
  40  0.300  0.600  0.503- 137 2.11 134 2.11 138 2.11 157 2.11 140 2.11   2 2.71
  41  0.200  0.800  0.407- 139 2.11 144 2.11 143 2.11 124 2.11 141 2.11
  42  0.300  0.900  0.407- 143 2.11 128 2.11 144 2.11 163 2.11 142 2.11
  43  0.200  0.900  0.503- 142 2.11 125 2.11 141 2.11 122 2.11 143 2.11
  44  0.300  0.800  0.503- 138 2.11 141 2.11 142 2.11 161 2.11 144 2.11
  45  0.400  0.000  0.407- 128 2.11 147 2.11 148 2.11 163 2.11 145 2.11
  46  0.500  0.100  0.407- 147 2.11 148 2.11 152 2.11 167 2.11 146 2.11
  47  0.400  0.100  0.503- 126 2.11 145 2.11 146 2.11 149 2.11 147 2.11
  48  0.500  0.000  0.503- 145 2.11 146 2.11 162 2.11 165 2.11 148 2.11
  49  0.400  0.200  0.407- 151 2.11 147 2.11 132 2.11 152 2.11 149 2.11
  50  0.500  0.300  0.407- 152 2.11 151 2.11 156 2.11 171 2.11 150 2.11
  51  0.400  0.300  0.503- 149 2.11 130 2.11 150 2.11 153 2.11 151 2.11
  52  0.500  0.200  0.503- 150 2.11 149 2.11 146 2.11 169 2.11 152 2.11
  53  0.400  0.400  0.407- 136 2.11 151 2.11 155 2.11 156 2.11 153 2.11
  54  0.500  0.500  0.407- 155 2.11 156 2.11 160 2.11 175 2.11 154 2.11
  55  0.400  0.500  0.503- 134 2.11 153 2.11 154 2.11 157 2.11 155 2.11
  56  0.500  0.400  0.503- 150 2.11 153 2.11 154 2.11 173 2.11 156 2.11   3 2.71
  57  0.400  0.600  0.407- 140 2.11 155 2.11 159 2.11 160 2.11 157 2.11
  58  0.500  0.700  0.407- 164 2.11 160 2.11 159 2.11 179 2.11 158 2.11
  59  0.400  0.700  0.503- 161 2.11 157 2.11 158 2.11 138 2.11 159 2.11   2 2.71
  60  0.500  0.600  0.503- 154 2.11 157 2.11 158 2.11 177 2.11 160 2.11
[...]
 190  0.900  0.300  0.503-  92 2.11  91 2.11  11 2.11  96 2.11  90 2.11
 191  0.800  0.300  0.407-  70 2.11  89 2.11  90 2.11  93 2.11  91 2.11
 192  0.900  0.200  0.407-  90 2.11  86 2.11  89 2.11   9 2.11  92 2.11
 193  0.800  0.400  0.503-  76 2.11  91 2.11  95 2.11  96 2.11  93 2.11
 194  0.900  0.500  0.503-  15 2.11  95 2.11  96 2.11 100 2.11  94 2.11
 195  0.800  0.500  0.407-  74 2.11  93 2.11  94 2.11  97 2.11  95 2.11
 196  0.900  0.400  0.407-  13 2.11  90 2.11  93 2.11  94 2.11  96 2.11
 197  0.800  0.600  0.503-  80 2.11  95 2.11  99 2.11 100 2.11  97 2.11
 198  0.900  0.700  0.503- 104 2.11  99 2.11 100 2.11  19 2.11  98 2.11
 199  0.800  0.700  0.407-  78 2.11 101 2.11  98 2.11  97 2.11  99 2.11
 200  0.900  0.600  0.407-  17 2.11  94 2.11  97 2.11  98 2.11 100 2.11
 201  0.800  0.800  0.503-  84 2.11  99 2.11 103 2.11 104 2.11 101 2.11
 202  0.900  0.900  0.503-  23 2.11  88 2.11 103 2.11 104 2.11 102 2.11
 203  0.800  0.900  0.407-  82 2.11  85 2.11 101 2.11 102 2.11 103 2.11
 204  0.900  0.800  0.407-  98 2.11  21 2.11 101 2.11 102 2.11 104 2.11

  LATTYP: Found a simple tetragonal cell.
 ALAT       =    21.1388521970
 C/A-ratio  =     1.0461251639

  Lattice vectors:

 A1 = (  21.1388521970,   0.0000000000,   0.0000000000)
 A2 = (   0.0000000000,  21.1388521970,   0.0000000000)
 A3 = (   0.0000000000,   0.0000000000,  22.1138852197)

Analysis of symmetry for initial positions (statically):
 Subroutine PRICEL returns:
 Original cell was already a primitive cell.

 Routine SETGRP: Setting up the symmetry group for a
 simple tetragonal supercell.

 Subroutine GETGRP returns: Found  2 space group operations
 (whereof  1 operations were pure point group operations)
 out of a pool of 16 trial point group operations.

The static configuration has the point symmetry C_1 .
 The point group associated with its full space group is C_1h.

Analysis of symmetry for dynamics (positions and initial velocities):
 Subroutine PRICEL returns:
 Original cell was already a primitive cell.

[...]

The dynamic configuration has the point symmetry C_1 .
 The point group associated with its full space group is C_1h.

Analysis of constrained symmetry for selective dynamics:
 Subroutine PRICEL returns:
 Original cell was already a primitive cell.

 Routine SETGRP: Setting up the symmetry group for a
 simple tetragonal supercell.

 Subroutine GETGRP returns: Found  2 space group operations
 (whereof  1 operations were pure point group operations)
 out of a pool of 16 trial point group operations.

The constrained configuration has the point symmetry C_1 .
 The point group associated with its full space group is C_1h.

 Subroutine INISYM returns: Found  2 space group operations
 (whereof  1 operations are pure point group operations),
 and found     1 'primitive' translations

                                     Primitive cell

  volume of cell :    9881.6133

  direct lattice vectors                    reciprocal lattice vectors
    21.138852197  0.000000000  0.000000000     0.047306258  0.000000000  0.000000000
     0.000000000 21.138852197  0.000000000     0.000000000  0.047306258  0.000000000
     0.000000000  0.000000000 22.113885220     0.000000000  0.000000000  0.045220457

  length of vectors
    21.138852197 21.138852197 22.113885220     0.047306258  0.047306258  0.045220457

  position of ions in fractional coordinates (direct lattice)
     0.404253373  0.595794633  0.665345618
     0.332139373  0.667908160  0.602022863
     0.567907686  0.432139846  0.602022863
     0.495794160  0.504253373  0.665345618
[...]
  501                  m_alltoallv_z                         0.062231                  6   8
  502                  map_scatter                           0.004058                  6   8
  503          m_sumb_d                              0.000815                          3   4
  504        fortau                                0.557026                            1   3
  505          m_sumb_d                              0.001478                          1   4
  506        forhar                                0.550467                            1   3
  507          m_sumb_d                              0.000343                          1   4
  508        strehar                               0.012746                            1   3
  509          m_sumb_d                              0.000151                          1   4
  510        m_bcast_d                             0.000552                            2   3
  511      potlok                                0.088261                              1   2
  512        fft3d_mpi                             0.058872                            5   3
  513          fftbrc_mpi                            0.054996                          5   4
  514            fftbas_plan_mpi                       0.054976                        5   5
  515              dfftw_execute                         0.017626                     15   6
  516              map_backward                          0.013175                      4   6
  517                map_gather                            0.002224                    2   7
  518                m_alltoallv_z                         0.009500                    2   7
  519                map_scatter                           0.001403                    2   7
  520              map_forward                           0.020561                      6   6
  521                map_gather                            0.001340                    4   7
  522                m_alltoallv_z                         0.012727                    4   7
  523                map_scatter                           0.006418                    4   7
  524        m_sumb_d                              0.000589                            2   3
  525        fewald                                0.001280                            2   3
  526          rsp                                   0.001171                          2   4
  527          rcp                                   0.000094                          2   4
  528        pothar                                0.001639                            1   3
  529          m_sumb_d                              0.000166                          1   4
  530        m_bcast_d                             0.009133                            1   3
  531      potlok_metagga                        2.027004                              1   2
  532        fft3d_mpi                             0.228689                           17   3
  533          fftbrc_mpi                            0.215991                         17   4
  534            fftbas_plan_mpi                       0.215935                       17   5
  535              dfftw_execute                         0.054172                     51   6
  536              map_forward                           0.072239                     22   6
  537                map_gather                            0.005204                   13   7
  538                m_alltoallv_z                         0.048880                   13   7
  539                map_scatter                           0.017923                   13   7
  540              map_backward                          0.077138                     12   6
  541                map_gather                            0.006672                    6   7
  542                m_alltoallv_z                         0.066278                    6   7
  543                map_scatter                           0.003985                    6   7
  544        m_sumb_d                              0.001244                            3   3
  545        m_bcast_d                             0.017436                            2   3
  546      set_dd_magatom                        0.000001                              1   2
  547      set_dd_paw                            5.122653                              1   2
  548        set_rsgf_all                          0.000001                            1   3
  549        m_sumb_d                              5.121252                            7   3
  550      m_bcast_d                             0.000275                              2   2

 Flat profile

 set_kineden                           711.550160          62
 m_sumb_d                              337.743402       13330
 dfftw_execute                         322.179545      108810
 edwav                                 109.855207          42
 potlok_metagga                         88.606791          44
 set_charge                             84.527845          43
 map_scatter                            60.349720       36507
 total_time                             54.657168           1
 map_gather                             53.321271       36507
 m_alltoallv_z                          48.833911       36507
 fftwav_mpi                             35.611167       20037
 lincom                                 27.614438         133
 map_forward                            26.627248       41488
 m_alltoall_d                           24.217764       23940
 kinhamil_tau                           22.454992        3608
 fftbas_plan_mpi                        21.400432       36270
 eddav                                  19.289295           5
 orth1                                  16.715634        3320
 eccp_tau                                8.772570        2492
 m_bcast_z                               5.603636        1424
 ggemm                                   5.579015         640
 fftext_mpi                              5.459589       15020
 choleski                                4.664451          43
 lapack                                  3.979801         500
 eddiag                                  2.912307          22
 vhamil                                  2.559572        1116
 crrexp_mul_work_add                     2.201774      221952
 pw_charge                               2.035543         989
 setdij_                                 1.896636          71
 rpro1                                   1.823283         948
 augmentation_charge                     1.796418          43
 potxc_metagga                           1.795169           1
 crrexp_mul_wave                         1.753946      267648
 m_bcast_d                               1.187752        1136
 racc0                                   1.185889         588
 fft3d_mpi                               1.127501       36270
 rspher_all                              1.116215          14
 gemm                                    1.024515      102000
 redis_pw                                0.947056        3886
 w1_dscal                                0.932561         588
 phaser                                  0.817519          39
 potlok                                  0.761992          44
 fortau                                  0.555548           1
 forhar                                  0.550124           1
 forloc                                  0.548761           1
 racc0mu                                 0.391041         500
 rpromu_gemm                             0.387813       18564
 elmin_all                               0.383496           1
 stufak                                  0.336417           1
 map_backward                            0.299942       31052
 stretau                                 0.240671           1
 w1_copy                                 0.168885        1500
 rpromu                                  0.158799          91
 soft_charge                             0.136567          43
 redis_proj                              0.125581        3962
 overl                                   0.124611        1534
 fftbas_mpi                              0.122655       35057
 orthch                                  0.116530          43
 pothar                                  0.064292          44
 inisym                                  0.061237           1
 rsp                                     0.058581          89
 apply_precond                           0.053130         360
 setup_precond                           0.050417         140
 fft_gq                                  0.032674          43
 depsum                                  0.026945          43
 overl1                                  0.022643         500
 force_and_stress                        0.016358           1
 set_dd_paw                              0.013670          45
 densta                                  0.012840          54
 strehar                                 0.012595           1
 hamiltmu_tau                            0.011736         500
 strelo                                  0.010825           1
 rpro_isp                                0.009562          13
 hamilt_local_tau                        0.007565         616
 newband                                 0.007312         505
 strnlr                                  0.007143           1
 fewald                                  0.006858          89
 strkin                                  0.005830           1
 raccmu_                                 0.005756         500
 rcp                                     0.004914          89
 fftbrc_mpi                              0.003947        1213
 fornlr                                  0.002366           1
 w1_projall                              0.002148         360
 brgrid                                  0.001357           1
 truncate_high_frequency_w1              0.000701         640
 redis_pw_all                            0.000416          42
 posmap                                  0.000330           2
 fordep                                  0.000280           1
 crpa_reader                             0.000236           1
 redis_pw_over_bands                     0.000181          43
 set_rsgf_all                            0.000104          45
 proall                                  0.000052           1
 vectorpot                               0.000031           1
 rotate_active_occupied_orbital          0.000019           1
 set_dd_magatom                          0.000011           2
 shift_bands_between_low_high            0.000009           1
  summed up times    2132.65320801735

 Accumulative profile

 total_time                           2132.653208           1
 elmin_all                            1994.777239           1
 set_kineden                           873.704809          62
 fft3d_mpi                             534.266171       36270
 fftbas_plan_mpi                       533.012068       36270
 fftbas_mpi                            510.583573       35057
 edwav                                 487.858736          42
 kinhamil_tau                          409.635879        3608
 fftwav_mpi                            339.862299       20037
 m_sumb_d                              337.743402       13330
 dfftw_execute                         322.179545      108810
 eccp_tau                              291.656589        2492
 set_dd_paw                            230.517294          45
 fftext_mpi                            211.933630       15020
 eddav                                 138.176607           5
 map_forward                           120.767610       41488
 set_charge                            115.879110          43
 eddiag                                106.275998          22
 potlok_metagga                         99.539322          44
 hamilt_local_tau                       71.452292         616
 force_and_stress                       68.776972           1
 map_backward                           68.664481       31052
 hamiltmu_tau                           60.650552         500
 map_scatter                            60.349720       36507
 map_gather                             53.321271       36507
 stretau                                51.053811           1
 m_alltoallv_z                          48.833911       36507
 lincom                                 27.614438         133
 m_alltoall_d                           24.217764       23940
 fftbrc_mpi                             22.555097        1213
 orthch                                 21.398798          43
 soft_charge                            20.776141          43
 newband                                19.158458         505
 redis_pw                               19.023538        3886
 orth1                                  16.715634        3320
 rpro_isp                                7.328464          13
 redis_proj                              6.266863        3962
 strnlr                                  6.121334           1
 m_bcast_z                               5.603636        1424
 ggemm                                   5.579015         640
 choleski                                4.664451          43
 lapack                                  3.979801         500
 potlok                                  3.955289          44
 rpro1                                   3.525062         948
 racc0                                   2.606805         588
 raccmu_                                 2.566029         500
 vhamil                                  2.559572        1116
 racc0mu                                 2.537630         500
 augmentation_charge                     2.309694          43
 crrexp_mul_work_add                     2.201774      221952
 setdij_                                 2.135468          71
 fornlr                                  2.057060           1
 pw_charge                               2.035543         989
 potxc_metagga                           1.981438           1
 crrexp_mul_wave                         1.753946      267648
 redis_pw_over_bands                     1.476263          43
 redis_pw_all                            1.476082          42
 w1_projall                              1.334365         360
 m_bcast_d                               1.187752        1136
 rspher_all                              1.116215          14
 rpromu                                  1.111495          91
 gemm                                    1.024515      102000
 w1_dscal                                0.932561         588
 phaser                                  0.817519          39
 proall                                  0.630424           1
 fortau                                  0.557026           1
 forloc                                  0.551670           1
 forhar                                  0.550467           1
 fft_gq                                  0.541428          43
 rpromu_gemm                             0.387813       18564
 stufak                                  0.336417           1
 depsum                                  0.254694          43
 fordep                                  0.170810           1
 w1_copy                                 0.168885        1500
 overl                                   0.124611        1534
 densta                                  0.113532          54
 pothar                                  0.080422          44
 fewald                                  0.077161          89
 inisym                                  0.061567           1
 setup_precond                           0.061291         140
 rsp                                     0.058581          89
 apply_precond                           0.053130         360
 overl1                                  0.022643         500
 strehar                                 0.012746           1
 strkin                                  0.012627           1
 strelo                                  0.011158           1
 rcp                                     0.004914          89
 brgrid                                  0.001357           1
 truncate_high_frequency_w1              0.000701         640
 posmap                                  0.000330           2
 crpa_reader                             0.000236           1
 set_rsgf_all                            0.000104          45
 vectorpot                               0.000031           1
 rotate_active_occupied_orbital          0.000019           1
 set_dd_magatom                          0.000011           2
 shift_bands_between_low_high            0.000009           1

Profiling took   0.890148  0.392914  0.007797  0.006502 seconds
Profiling took   1.153587 seconds