 vasp.6.3.2 27Jun22 (build Jan 05 2024 11:34:19) complex

 executed on           IFC15_impi date 2024.01.08  16:11:08

 INCAR:
   SYSTEM = MgO-rocksalt
   ISMEAR = 0
   SIGMA = 0.05
   EDIFF = 1E-6
   ALGO = ALL
   ISTART = 0
   IBRION = -1
   NSW = 0
   ISYM = 2
   DIPOL = 0.5 0.5 0.5
   IDIPOL = 3
   LDIPOL = .TRUE.
   METAGGA = M06L
   ENCUT = 520
   PREC = Accurate
   LASPH = .TRUE.
   LREAL = Auto
   ISPIN = 1
   NELM = 2000
   NELMIN = 8
   NCORE = 8
   LWAVE = .FALSE.
   LCHARG = .FALSE.

 POTCAR:    PAW_PBE Ag 02Apr2005
 POTCAR:    PAW_PBE Mg_pv 13Apr2007
 POTCAR:    PAW_PBE O 08Apr2002
 POTCAR:    PAW_PBE Ag 02Apr2005
   VRHFIN =Ag : s1 d10

   TITEL  = PAW_PBE Ag 02Apr2005
   POMASS =  107.868; ZVAL   =   11.000    mass and valenz
   ENMAX  =  249.844; ENMIN  =  187.383 eV

   TITEL  = PAW_PBE Mg_pv 13Apr2007
   POMASS =   24.305; ZVAL   =    8.000    mass and valenz
   ENMAX  =  403.929; ENMIN  =  302.947 eV

   TITEL  = PAW_PBE O 08Apr2002
   POMASS =   16.000; ZVAL   =    6.000    mass and valenz
   ENMAX  =  400.000; ENMIN  =  300.000 eV

 Optimization of the real space projectors (new method)

 maximal supplied QI-value         = 15.12
 optimisation between [QCUT,QGAM] = [ 11.64, 23.28] = [ 37.95,151.78] Ry
 Optimized for a Real-space Cutoff    1.45 Angstroem

   l    n(q)    QCUT    max X(q) W(low)/X(q) W(high)/X(q)  e(spline)
   2      9    11.641    53.897    0.22E-03    0.42E-04    0.28E-06
   2      9    11.641    52.416    0.23E-03    0.44E-04    0.29E-06
   0     10    11.641   122.045    0.51E-04    0.25E-04    0.16E-06
   0     10    11.641    73.629    0.49E-04    0.24E-04    0.16E-06
   1     10    11.641    15.255    0.99E-04    0.55E-04    0.11E-06
   1     10    11.641     9.562    0.81E-04    0.47E-04    0.95E-07
 Optimization of the real space projectors (new method)

[...]

   l    n(q)    QCUT    max X(q) W(low)/X(q) W(high)/X(q)  e(spline)
   1      8    11.527     2.974    0.44E-04    0.56E-04    0.12E-06
   1      8    11.527     4.279    0.12E-03    0.12E-03    0.26E-06
   0      9    11.527    16.381    0.46E-04    0.64E-04    0.78E-07
   0      9    11.527     5.611    0.26E-04    0.43E-04    0.55E-07
   2      8    11.527     4.652    0.22E-03    0.72E-04    0.47E-07
 Optimization of the real space projectors (new method)

 maximal supplied QI-value         = 24.76
 optimisation between [QCUT,QGAM] = [ 11.64, 23.27] = [ 37.91,151.63] Ry
 Optimized for a Real-space Cutoff    1.14 Angstroem

   l    n(q)    QCUT    max X(q) W(low)/X(q) W(high)/X(q)  e(spline)
   0      8    11.635    20.381    0.10E-03    0.33E-03    0.24E-06
   0      8    11.635    15.268    0.11E-03    0.35E-03    0.26E-06
   1      7    11.635     5.964    0.24E-03    0.31E-03    0.30E-06
   1      7    11.635     5.382    0.22E-03    0.25E-03    0.26E-06
  PAW_PBE Ag 02Apr2005                  :
  PAW_PBE Mg_pv 13Apr2007               :
  PAW_PBE O 08Apr2002                   :

 POSCAR: Ag Mg  O
  positions in direct lattice

 METAGGA = M06L     LMAXTAU =  6    LMIXTAU =  F

 VTST: version 4.1, (05/19/21)

 CHAIN: initializing optimizer

 OPT: Using VASP Dynamics algorithm
 CHAIN: Read ICHAIN            0

 POSCAR: Ag Mg  O
  positions in direct lattice

 ion  position               nearest neighbor table
   1  0.543  0.557  0.623-   2 2.59  58 2.97
   2  0.457  0.643  0.623-   1 2.59  58 2.97
   3  0.000  0.000  0.407- 105 2.11 106 2.11 121 2.11 186 2.11 103 2.11
   4  0.100  0.100  0.407- 105 2.11 106 2.11 110 2.11 125 2.11 104 2.11
   5  0.000  0.100  0.503- 103 2.11 104 2.11 107 2.11 184 2.11 105 2.11
   6  0.100  0.000  0.503- 103 2.11 104 2.11 120 2.11 123 2.11 106 2.11
   7  0.000  0.200  0.407- 109 2.11 105 2.11 110 2.11 190 2.11 107 2.11
   8  0.100  0.300  0.407- 110 2.11 109 2.11 114 2.11 129 2.11 108 2.11
   9  0.000  0.300  0.503- 107 2.11 108 2.11 111 2.11 188 2.11 109 2.11
  10  0.100  0.200  0.503- 108 2.11 107 2.11 104 2.11 127 2.11 110 2.11
  11  0.000  0.400  0.407- 109 2.11 113 2.11 114 2.11 194 2.11 111 2.11
  12  0.100  0.500  0.407- 113 2.11 114 2.11 118 2.11 133 2.11 112 2.11
  13  0.000  0.500  0.503- 111 2.11 112 2.11 115 2.11 192 2.11 113 2.11
  14  0.100  0.400  0.503- 108 2.11 111 2.11 112 2.11 131 2.11 114 2.11
  15  0.000  0.600  0.407- 113 2.11 117 2.11 118 2.11 198 2.11 115 2.11
  16  0.100  0.700  0.407- 122 2.11 118 2.11 117 2.11 137 2.11 116 2.11
  17  0.000  0.700  0.503- 119 2.11 116 2.11 115 2.11 196 2.11 117 2.11
  18  0.100  0.600  0.503- 112 2.11 115 2.11 116 2.11 135 2.11 118 2.11
  19  0.000  0.800  0.407- 117 2.11 121 2.11 122 2.11 202 2.11 119 2.11
  20  0.100  0.900  0.407- 106 2.11 121 2.11 122 2.11 141 2.11 120 2.11
  21  0.000  0.900  0.503- 103 2.11 119 2.11 120 2.11 200 2.11 121 2.11
  22  0.100  0.800  0.503- 116 2.11 119 2.11 120 2.11 139 2.11 122 2.11
  23  0.200  0.000  0.407- 126 2.11 125 2.11 106 2.11 141 2.11 123 2.11
  24  0.300  0.100  0.407- 125 2.11 126 2.11 130 2.11 145 2.11 124 2.11
  25  0.200  0.100  0.503- 124 2.11 123 2.11 104 2.11 127 2.11 125 2.11
  26  0.300  0.000  0.503- 123 2.11 124 2.11 140 2.11 143 2.11 126 2.11
  27  0.200  0.200  0.407- 129 2.11 130 2.11 110 2.11 125 2.11 127 2.11
  28  0.300  0.300  0.407- 129 2.11 130 2.11 134 2.11 149 2.11 128 2.11
  29  0.200  0.300  0.503- 127 2.11 128 2.11 108 2.11 131 2.11 129 2.11
  30  0.300  0.200  0.503- 127 2.11 128 2.11 124 2.11 147 2.11 130 2.11
  31  0.200  0.400  0.407- 134 2.11 129 2.11 133 2.11 114 2.11 131 2.11
  32  0.300  0.500  0.407- 133 2.11 134 2.11 138 2.11 153 2.11 132 2.11
  33  0.200  0.500  0.503- 132 2.11 131 2.11 112 2.11 135 2.11 133 2.11
  34  0.300  0.400  0.503- 131 2.11 128 2.11 132 2.11 151 2.11 134 2.11
  35  0.200  0.600  0.407- 138 2.11 133 2.11 137 2.11 118 2.11 135 2.11
  36  0.300  0.700  0.407- 137 2.11 142 2.11 138 2.11 157 2.11 136 2.11
  37  0.200  0.700  0.503- 136 2.11 139 2.11 116 2.11 135 2.11 137 2.11
  38  0.300  0.600  0.503- 135 2.11 132 2.11 136 2.11 155 2.11 138 2.11
  39  0.200  0.800  0.407- 137 2.11 142 2.11 141 2.11 122 2.11 139 2.11
  40  0.300  0.900  0.407- 141 2.11 126 2.11 142 2.11 161 2.11 140 2.11
  41  0.200  0.900  0.503- 140 2.11 123 2.11 139 2.11 120 2.11 141 2.11
  42  0.300  0.800  0.503- 136 2.11 139 2.11 140 2.11 159 2.11 142 2.11
  43  0.400  0.000  0.407- 126 2.11 145 2.11 146 2.11 161 2.11 143 2.11
  44  0.500  0.100  0.407- 145 2.11 146 2.11 150 2.11 165 2.11 144 2.11
  45  0.400  0.100  0.503- 124 2.11 143 2.11 144 2.11 147 2.11 145 2.11
  46  0.500  0.000  0.503- 143 2.11 144 2.11 160 2.11 163 2.11 146 2.11
  47  0.400  0.200  0.407- 149 2.11 145 2.11 130 2.11 150 2.11 147 2.11
  48  0.500  0.300  0.407- 150 2.11 149 2.11 154 2.11 169 2.11 148 2.11
  49  0.400  0.300  0.503- 147 2.11 128 2.11 148 2.11 151 2.11 149 2.11
  50  0.500  0.200  0.503- 148 2.11 147 2.11 144 2.11 167 2.11 150 2.11
  51  0.400  0.400  0.407- 134 2.11 149 2.11 153 2.11 154 2.11 151 2.11
  52  0.500  0.500  0.407- 153 2.11 154 2.11 158 2.11 173 2.11 152 2.11
  53  0.400  0.500  0.503- 132 2.11 151 2.11 152 2.11 155 2.11 153 2.11
  54  0.500  0.400  0.503- 148 2.11 151 2.11 152 2.11 171 2.11 154 2.11
  55  0.400  0.600  0.407- 138 2.11 153 2.11 157 2.11 158 2.11 155 2.11
  56  0.500  0.700  0.407- 162 2.11 158 2.11 157 2.11 177 2.11 156 2.11
  57  0.400  0.700  0.503- 159 2.11 155 2.11 156 2.11 136 2.11 157 2.11
  58  0.500  0.600  0.503- 152 2.11 155 2.11 156 2.11 175 2.11 158 2.11   2 2.97   1 2.97
  59  0.400  0.800  0.407- 157 2.11 142 2.11 161 2.11 162 2.11 159 2.11
  60  0.500  0.900  0.407- 146 2.11 161 2.11 162 2.11 181 2.11 160 2.11
[...]
 188  0.900  0.300  0.503-  90 2.11  89 2.11   9 2.11  94 2.11  88 2.11
 189  0.800  0.300  0.407-  68 2.11  87 2.11  88 2.11  91 2.11  89 2.11
 190  0.900  0.200  0.407-  88 2.11  84 2.11  87 2.11   7 2.11  90 2.11
 191  0.800  0.400  0.503-  74 2.11  89 2.11  93 2.11  94 2.11  91 2.11
 192  0.900  0.500  0.503-  13 2.11  93 2.11  94 2.11  98 2.11  92 2.11
 193  0.800  0.500  0.407-  72 2.11  91 2.11  92 2.11  95 2.11  93 2.11
 194  0.900  0.400  0.407-  11 2.11  88 2.11  91 2.11  92 2.11  94 2.11
 195  0.800  0.600  0.503-  78 2.11  93 2.11  97 2.11  98 2.11  95 2.11
 196  0.900  0.700  0.503- 102 2.11  97 2.11  98 2.11  17 2.11  96 2.11
 197  0.800  0.700  0.407-  76 2.11  99 2.11  96 2.11  95 2.11  97 2.11
 198  0.900  0.600  0.407-  15 2.11  92 2.11  95 2.11  96 2.11  98 2.11
 199  0.800  0.800  0.503-  82 2.11  97 2.11 101 2.11 102 2.11  99 2.11
 200  0.900  0.900  0.503-  21 2.11  86 2.11 101 2.11 102 2.11 100 2.11
 201  0.800  0.900  0.407-  80 2.11  83 2.11  99 2.11 100 2.11 101 2.11
 202  0.900  0.800  0.407-  96 2.11  19 2.11  99 2.11 100 2.11 102 2.11

  LATTYP: Found a simple tetragonal cell.
 ALAT       =    21.1388521970
 C/A-ratio  =     1.0461251639

  Lattice vectors:

 A1 = (  21.1388521970,   0.0000000000,   0.0000000000)
 A2 = (   0.0000000000,  21.1388521970,   0.0000000000)
 A3 = (   0.0000000000,   0.0000000000,  22.1138852197)

Analysis of symmetry for initial positions (statically):
 Subroutine PRICEL returns:
 Original cell was already a primitive cell.

 Routine SETGRP: Setting up the symmetry group for a
 simple tetragonal supercell.

 Subroutine GETGRP returns: Found  4 space group operations
 (whereof  1 operations were pure point group operations)
 out of a pool of 16 trial point group operations.

The static configuration has the point symmetry C_1 .
 The point group associated with its full space group is C_2v.

Analysis of symmetry for dynamics (positions and initial velocities):
 Subroutine PRICEL returns:
 Original cell was already a primitive cell.

 Routine SETGRP: Setting up the symmetry group for a
 simple tetragonal supercell.

 Subroutine GETGRP returns: Found  4 space group operations
 (whereof  1 operations were pure point group operations)
 out of a pool of 16 trial point group operations.

The dynamic configuration has the point symmetry C_1 .
 The point group associated with its full space group is C_2v.

 Subroutine INISYM returns: Found  4 space group operations
 (whereof  1 operations are pure point group operations),
 and found     1 'primitive' translations

                                     Primitive cell

  volume of cell :    9881.6133

  direct lattice vectors                    reciprocal lattice vectors
    21.138852197  0.000000000  0.000000000     0.047306258  0.000000000  0.000000000
     0.000000000 21.138852197  0.000000000     0.000000000  0.047306258  0.000000000
     0.000000000  0.000000000 22.113885220     0.000000000  0.000000000  0.045220457

  length of vectors
    21.138852197 21.138852197 22.113885220     0.047306258  0.047306258  0.045220457

  position of ions in fractional coordinates (direct lattice)
     0.543264150  0.556735814  0.623371474
     0.456735850  0.643264114  0.623371474
     0.000000000  0.000000000  0.406984115
     0.100000000  0.100000000  0.406984115
     0.000000000  0.100000000  0.502574971
     0.100000000  0.000000000  0.502574971
     0.000000000  0.200000000  0.406984115
     0.100000000  0.300000000  0.406984115
     0.000000000  0.300000000  0.502574971
     0.100000000  0.200000000  0.502574971
     0.000000000  0.400000000  0.406984115
[...]
  501                  map_gather                            0.006776                  6   8
  502                  m_alltoallv_z                         0.029779                  6   8
  503                  map_scatter                           0.004070                  6   8
  504          m_sumb_d                              0.000332                          3   4
  505        fortau                                0.568979                            1   3
  506          m_sumb_d                              0.000240                          1   4
  507        forhar                                0.569118                            1   3
  508          m_sumb_d                              0.000548                          1   4
  509        strehar                               0.013071                            1   3
  510          m_sumb_d                              0.000406                          1   4
  511        m_bcast_d                             0.000641                            2   3
  512      potlok                                0.086595                              1   2
  513        fft3d_mpi                             0.059119                            5   3
  514          fftbrc_mpi                            0.054892                          5   4
  515            fftbas_plan_mpi                       0.054878                        5   5
  516              dfftw_execute                         0.018297                     15   6
  517              map_backward                          0.012599                      4   6
  518                map_gather                            0.002309                    2   7
  519                m_alltoallv_z                         0.008963                    2   7
  520                map_scatter                           0.001279                    2   7
  521              map_forward                           0.020489                      6   6
  522                map_gather                            0.001263                    4   7
  523                m_alltoallv_z                         0.012091                    4   7
  524                map_scatter                           0.007065                    4   7
  525        m_sumb_d                              0.000323                            2   3
  526        fewald                                0.001314                            2   3
  527          rsp                                   0.001208                          2   4
  528          rcp                                   0.000091                          2   4
  529        pothar                                0.002341                            1   3
  530          m_sumb_d                              0.000759                          1   4
  531        m_bcast_d                             0.006723                            1   3
  532      potlok_metagga                        2.023441                              1   2
  533        fft3d_mpi                             0.211541                           17   3
  534          fftbrc_mpi                            0.198577                         17   4
  535            fftbas_plan_mpi                       0.198531                       17   5
  536              dfftw_execute                         0.054868                     51   6
  537              map_forward                           0.080135                     22   6
  538                map_gather                            0.005203                   13   7
  539                m_alltoallv_z                         0.056583                   13   7
  540                map_scatter                           0.018111                   13   7
  541              map_backward                          0.050812                     12   6
  542                map_gather                            0.006523                    6   7
  543                m_alltoallv_z                         0.040123                    6   7
  544                map_scatter                           0.004042                    6   7
  545        m_sumb_d                              0.001908                            3   3
  546        m_bcast_d                             0.015024                            2   3
  547      set_dd_magatom                        0.000001                              1   2
  548      set_dd_paw                            4.885102                              1   2
  549        set_rsgf_all                          0.000002                            1   3
  550        m_sumb_d                              4.884798                            7   3

 Flat profile

 set_kineden                          1194.028037         100
 m_sumb_d                              592.742833       20792
 dfftw_execute                         533.775681      179943
 edwav                                 188.526698          80
 potlok_metagga                        156.651896          82
 set_charge                            145.475185          81
 m_alltoallv_z                         112.918064       60408
 map_scatter                            99.552069       60408
 map_gather                             87.807053       60408
 m_alltoall_d                           82.170391       40512
 fftwav_mpi                             57.397372       32532
 total_time                             54.263510           1
 lincom                                 47.690126         247
 map_forward                            43.305011       67618
 kinhamil_tau                           36.987752        6042
 fftbas_plan_mpi                        35.700586       59981
 orth1                                  24.106612        4734
 eddav                                  17.131175           5
 eccp_tau                               15.521938        4455
 fftext_mpi                              9.252634       25248
 choleski                                8.063819          81
 m_bcast_z                               5.403283        1371
 ggemm                                   5.178466         615
 pw_charge                               3.953739        1863
 lapack                                  3.797957         480
 vhamil                                  3.544397        1587
 crrexp_mul_work_add                     3.139796      315120
 augmentation_charge                     2.944236          81
 rpro1                                   2.759567        1425
 eddiag                                  2.562056          41
 crrexp_mul_wave                         2.358253      358752
 setdij_                                 2.342162         109
 racc0                                   2.197350        1080
 m_bcast_d                               2.061245        1211
 fft3d_mpi                               2.048380       59981
 potxc_metagga                           1.806525           1
 w1_dscal                                1.669287        1080
 redis_pw                                1.555819        5892
 potlok                                  1.357526          82
 phaser                                  1.191970          58
 rspher_all                              1.067658          14
 gemm                                    0.979301       96960
 fortau                                  0.568739           1
 forhar                                  0.568570           1
 forloc                                  0.563185           1
 map_backward                            0.513205       52344
 rpromu_gemm                             0.395038       18382
 racc0mu                                 0.372984         480
 stufak                                  0.333681           1
 elmin_all                               0.281714           1
 soft_charge                             0.243950          81
 stretau                                 0.241328           1
 fftbas_mpi                              0.207642       57780
 redis_proj                              0.204005        5786
 overl                                   0.189045        2067
 orthch                                  0.183356          81
 w1_copy                                 0.163968        1440
 rpromu                                  0.150165          91
 pothar                                  0.119563          82
 rsp                                     0.104677         165
 fft_gq                                  0.059892          81
 apply_precond                           0.052569         345
 inisym                                  0.051138           1
 depsum                                  0.048337          81
 setup_precond                           0.048258         135
 set_dd_paw                              0.023936          83
 overl1                                  0.022001         480
 densta                                  0.020305          92
 force_and_stress                        0.015566           1
 hamilt_local_tau                        0.014252        1107
 strehar                                 0.012665           1
 hamiltmu_tau                            0.011646         480
 strelo                                  0.010458           1
 rcp                                     0.008448         165
 newband                                 0.007463         485
 fewald                                  0.007357         165
 fftbrc_mpi                              0.007309        2201
 strnlr                                  0.006916           1
 rpro_isp                                0.006752          13
 strkin                                  0.005815           1
 raccmu_                                 0.005600         480
 fornlr                                  0.002403           1
 w1_projall                              0.002125         345
 brgrid                                  0.001359           1
 posmap                                  0.000923           2
 redis_pw_all                            0.000732          80
 truncate_high_frequency_w1              0.000589         615
 fordep                                  0.000562           1
 redis_pw_over_bands                     0.000344          81
 crpa_reader                             0.000288           1
 set_rsgf_all                            0.000172          83
 proall                                  0.000056           1
 vectorpot                               0.000032           1
 rotate_active_occupied_orbital          0.000019           1
 set_dd_magatom                          0.000013           2
 shift_bands_between_low_high            0.000009           1
  summed up times    3602.84853482246

 Accumulative profile

 total_time                           3602.848535           1
 elmin_all                            3467.208992           1
 set_kineden                          1479.712412         100
 edwav                                 940.367081          80
 fft3d_mpi                             915.835001       59981
 fftbas_plan_mpi                       913.571670       59981
 fftbas_mpi                            872.821739       57780
 kinhamil_tau                          713.111396        6042
 m_sumb_d                              592.742833       20792
 fftwav_mpi                            564.049695       32532
 eccp_tau                              537.056145        4455
 dfftw_execute                         533.775681      179943
 set_dd_paw                            409.780139          83
 fftext_mpi                            375.660323       25248
 map_forward                           211.321216       67618
 set_charge                            207.341560          81
 potlok_metagga                        175.886099          82
 eddiag                                165.207956          41
 eddav                                 140.636690           5
 map_backward                          132.774186       52344
 hamilt_local_tau                      132.727862        1107
 m_alltoallv_z                         112.918064       60408
 map_scatter                            99.552069       60408
 map_gather                             87.807053       60408
 m_alltoall_d                           82.170391       40512
 redis_pw                               75.018136        5892
 force_and_stress                       67.291427           1
 hamiltmu_tau                           66.656227         480
 stretau                                50.187325           1
 lincom                                 47.690126         247
 soft_charge                            41.268978          81
 fftbrc_mpi                             40.964881        2201
 orthch                                 37.329993          81
 orth1                                  24.106612        4734
 newband                                21.229351         485
 redis_proj                              8.912079        5786
 choleski                                8.063819          81
 potlok                                  7.337159          82
 rpro_isp                                7.142037          13
 rpro1                                   6.477891        1425
 strnlr                                  5.910376           1
 m_bcast_z                               5.403283        1371
 ggemm                                   5.178466         615
 racc0                                   4.543273        1080
 augmentation_charge                     4.059294          81
 pw_charge                               3.953739        1863
 lapack                                  3.797957         480
 vhamil                                  3.544397        1587
 crrexp_mul_work_add                     3.139796      315120
 raccmu_                                 3.055329         480
 racc0mu                                 3.027727         480
 setdij_                                 2.788966         109
 redis_pw_over_bands                     2.621877          81
 redis_pw_all                            2.621533          80
 crrexp_mul_wave                         2.358253      358752
 w1_projall                              2.080969         345
 m_bcast_d                               2.061245        1211
 fornlr                                  1.974305           1
 potxc_metagga                           1.960977           1
 w1_dscal                                1.669287        1080
 phaser                                  1.191970          58
 rspher_all                              1.067658          14
 rpromu                                  1.064834          91
 fft_gq                                  1.037703          81
 gemm                                    0.979301       96960
 depsum                                  0.801786          81
 proall                                  0.666773           1
 forhar                                  0.569118           1
 fortau                                  0.568979           1
 forloc                                  0.564702           1
 rpromu_gemm                             0.395038       18382
 stufak                                  0.333681           1
 pothar                                  0.189332          82
 overl                                   0.189045        2067
 w1_copy                                 0.163968        1440
 densta                                  0.152344          92
 fordep                                  0.146322           1
 fewald                                  0.126733         165
 rsp                                     0.104677         165
 setup_precond                           0.053943         135
 apply_precond                           0.052569         345
 inisym                                  0.052061           1
 overl1                                  0.022001         480
 strehar                                 0.013071           1
 strkin                                  0.011305           1
 strelo                                  0.011242           1
 rcp                                     0.008448         165
 brgrid                                  0.001359           1
 posmap                                  0.000923           2
 truncate_high_frequency_w1              0.000589         615
 crpa_reader                             0.000288           1
 set_rsgf_all                            0.000172          83
 vectorpot                               0.000032           1
 rotate_active_occupied_orbital          0.000019           1
 set_dd_magatom                          0.000013           2
 shift_bands_between_low_high            0.000009           1

Profiling took   1.346444  0.575697  0.007781  0.006444 seconds
Profiling took   1.816128 seconds