 vasp.6.3.2 27Jun22 (build Jan 05 2024 11:34:19) complex

 executed on           IFC15_impi date 2024.01.09  00:03:37

 INCAR:
   SYSTEM = MgO-rocksalt
   ISMEAR = 0
   SIGMA = 0.05
   EDIFF = 1E-6
   ALGO = ALL
   ISTART = 0
   IBRION = -1
   NSW = 0
   ISYM = 2
   DIPOL = 0.5 0.5 0.5
   IDIPOL = 3
   LDIPOL = .TRUE.
   METAGGA = M06L
   ENCUT = 520
   PREC = Accurate
   LASPH = .TRUE.
   LREAL = Auto
   ISPIN = 1
   NELM = 2000
   NELMIN = 8
   NCORE = 8
   LWAVE = .FALSE.
   LCHARG = .FALSE.

 POTCAR:    PAW_PBE Cu 22Jun2005
 POTCAR:    PAW_PBE Mg_pv 13Apr2007
 POTCAR:    PAW_PBE O 08Apr2002
 POTCAR:    PAW_PBE Cu 22Jun2005
   VRHFIN =Cu: d10 p1

   TITEL  = PAW_PBE Cu 22Jun2005
   POMASS =   63.546; ZVAL   =   11.000    mass and valenz
   ENMAX  =  295.446; ENMIN  =  221.585 eV

   TITEL  = PAW_PBE Mg_pv 13Apr2007
   POMASS =   24.305; ZVAL   =    8.000    mass and valenz
   ENMAX  =  403.929; ENMIN  =  302.947 eV

   TITEL  = PAW_PBE O 08Apr2002
   POMASS =   16.000; ZVAL   =    6.000    mass and valenz
   ENMAX  =  400.000; ENMIN  =  300.000 eV

 Optimization of the real space projectors (new method)

 maximal supplied QI-value         = 16.25
 optimisation between [QCUT,QGAM] = [ 11.54, 23.24] = [ 37.28,151.24] Ry
 Optimized for a Real-space Cutoff    1.53 Angstroem

   l    n(q)    QCUT    max X(q) W(low)/X(q) W(high)/X(q)  e(spline)
   2     10    11.539     4.610    0.96E-04    0.13E-03    0.19E-06
   2     10    11.539     8.522    0.16E-03    0.21E-03    0.28E-06
   0     11    11.539    51.609    0.45E-04    0.31E-04    0.11E-06
   0     11    11.539    27.747    0.39E-04    0.29E-04    0.10E-06
   1     10    11.539    20.408    0.70E-05    0.38E-04    0.18E-06
   1     10    11.539    13.425    0.66E-05    0.34E-04    0.17E-06
 Optimization of the real space projectors (new method)

[...]

   l    n(q)    QCUT    max X(q) W(low)/X(q) W(high)/X(q)  e(spline)
   1      8    11.527     2.974    0.44E-04    0.56E-04    0.12E-06
   1      8    11.527     4.279    0.12E-03    0.12E-03    0.26E-06
   0      9    11.527    16.381    0.46E-04    0.64E-04    0.78E-07
   0      9    11.527     5.611    0.26E-04    0.43E-04    0.55E-07
   2      8    11.527     4.652    0.22E-03    0.72E-04    0.47E-07
 Optimization of the real space projectors (new method)

 maximal supplied QI-value         = 24.76
 optimisation between [QCUT,QGAM] = [ 11.64, 23.27] = [ 37.91,151.63] Ry
 Optimized for a Real-space Cutoff    1.14 Angstroem

   l    n(q)    QCUT    max X(q) W(low)/X(q) W(high)/X(q)  e(spline)
   0      8    11.635    20.381    0.10E-03    0.33E-03    0.24E-06
   0      8    11.635    15.268    0.11E-03    0.35E-03    0.26E-06
   1      7    11.635     5.964    0.24E-03    0.31E-03    0.30E-06
   1      7    11.635     5.382    0.22E-03    0.25E-03    0.26E-06
  PAW_PBE Cu 22Jun2005                  :
  PAW_PBE Mg_pv 13Apr2007               :
  PAW_PBE O 08Apr2002                   :

 POSCAR: Cu Mg  O
  positions in direct lattice

 METAGGA = M06L     LMAXTAU =  6    LMIXTAU =  F

 VTST: version 4.1, (05/19/21)

 CHAIN: initializing optimizer

 OPT: Using VASP Dynamics algorithm
 CHAIN: Read ICHAIN            0

 POSCAR: Cu Mg  O
  positions in direct lattice

 ion  position               nearest neighbor table
   1  0.500  0.500  0.691-   2 2.22
   2  0.500  0.500  0.590- 152 1.94   1 2.22
   3  0.000  0.000  0.407- 105 2.11 106 2.11 121 2.11 186 2.11 103 2.11
   4  0.100  0.100  0.407- 105 2.11 106 2.11 110 2.11 125 2.11 104 2.11
   5  0.000  0.100  0.503- 103 2.11 104 2.11 107 2.11 184 2.11 105 2.11
   6  0.100  0.000  0.503- 103 2.11 104 2.11 120 2.11 123 2.11 106 2.11
   7  0.000  0.200  0.407- 109 2.11 105 2.11 110 2.11 190 2.11 107 2.11
   8  0.100  0.300  0.407- 110 2.11 109 2.11 114 2.11 129 2.11 108 2.11
   9  0.000  0.300  0.503- 107 2.11 108 2.11 111 2.11 188 2.11 109 2.11
  10  0.100  0.200  0.503- 108 2.11 107 2.11 104 2.11 127 2.11 110 2.11
  11  0.000  0.400  0.407- 109 2.11 113 2.11 114 2.11 194 2.11 111 2.11
  12  0.100  0.500  0.407- 113 2.11 114 2.11 118 2.11 133 2.11 112 2.11
  13  0.000  0.500  0.503- 111 2.11 112 2.11 115 2.11 192 2.11 113 2.11
  14  0.100  0.400  0.503- 108 2.11 111 2.11 112 2.11 131 2.11 114 2.11
  15  0.000  0.600  0.407- 113 2.11 117 2.11 118 2.11 198 2.11 115 2.11
  16  0.100  0.700  0.407- 122 2.11 118 2.11 117 2.11 137 2.11 116 2.11
  17  0.000  0.700  0.503- 119 2.11 116 2.11 115 2.11 196 2.11 117 2.11
  18  0.100  0.600  0.503- 112 2.11 115 2.11 116 2.11 135 2.11 118 2.11
  19  0.000  0.800  0.407- 117 2.11 121 2.11 122 2.11 202 2.11 119 2.11
  20  0.100  0.900  0.407- 106 2.11 121 2.11 122 2.11 141 2.11 120 2.11
  21  0.000  0.900  0.503- 103 2.11 119 2.11 120 2.11 200 2.11 121 2.11
  22  0.100  0.800  0.503- 116 2.11 119 2.11 120 2.11 139 2.11 122 2.11
  23  0.200  0.000  0.407- 126 2.11 125 2.11 106 2.11 141 2.11 123 2.11
  24  0.300  0.100  0.407- 125 2.11 126 2.11 130 2.11 145 2.11 124 2.11
  25  0.200  0.100  0.503- 124 2.11 123 2.11 104 2.11 127 2.11 125 2.11
  26  0.300  0.000  0.503- 123 2.11 124 2.11 140 2.11 143 2.11 126 2.11
  27  0.200  0.200  0.407- 129 2.11 130 2.11 110 2.11 125 2.11 127 2.11
  28  0.300  0.300  0.407- 129 2.11 130 2.11 134 2.11 149 2.11 128 2.11
  29  0.200  0.300  0.503- 127 2.11 128 2.11 108 2.11 131 2.11 129 2.11
  30  0.300  0.200  0.503- 127 2.11 128 2.11 124 2.11 147 2.11 130 2.11
  31  0.200  0.400  0.407- 134 2.11 129 2.11 133 2.11 114 2.11 131 2.11
  32  0.300  0.500  0.407- 133 2.11 134 2.11 138 2.11 153 2.11 132 2.11
  33  0.200  0.500  0.503- 132 2.11 131 2.11 112 2.11 135 2.11 133 2.11
  34  0.300  0.400  0.503- 131 2.11 128 2.11 132 2.11 151 2.11 134 2.11
  35  0.200  0.600  0.407- 138 2.11 133 2.11 137 2.11 118 2.11 135 2.11
  36  0.300  0.700  0.407- 137 2.11 142 2.11 138 2.11 157 2.11 136 2.11
  37  0.200  0.700  0.503- 136 2.11 139 2.11 116 2.11 135 2.11 137 2.11
  38  0.300  0.600  0.503- 135 2.11 132 2.11 136 2.11 155 2.11 138 2.11
  39  0.200  0.800  0.407- 137 2.11 142 2.11 141 2.11 122 2.11 139 2.11
  40  0.300  0.900  0.407- 141 2.11 126 2.11 142 2.11 161 2.11 140 2.11
  41  0.200  0.900  0.503- 140 2.11 123 2.11 139 2.11 120 2.11 141 2.11
  42  0.300  0.800  0.503- 136 2.11 139 2.11 140 2.11 159 2.11 142 2.11
  43  0.400  0.000  0.407- 126 2.11 145 2.11 146 2.11 161 2.11 143 2.11
  44  0.500  0.100  0.407- 145 2.11 146 2.11 150 2.11 165 2.11 144 2.11
  45  0.400  0.100  0.503- 124 2.11 143 2.11 144 2.11 147 2.11 145 2.11
  46  0.500  0.000  0.503- 143 2.11 144 2.11 160 2.11 163 2.11 146 2.11
  47  0.400  0.200  0.407- 149 2.11 145 2.11 130 2.11 150 2.11 147 2.11
  48  0.500  0.300  0.407- 150 2.11 149 2.11 154 2.11 169 2.11 148 2.11
  49  0.400  0.300  0.503- 147 2.11 128 2.11 148 2.11 151 2.11 149 2.11
  50  0.500  0.200  0.503- 148 2.11 147 2.11 144 2.11 167 2.11 150 2.11
  51  0.400  0.400  0.407- 134 2.11 149 2.11 153 2.11 154 2.11 151 2.11
  52  0.500  0.500  0.407- 153 2.11 154 2.11 158 2.11 173 2.11 152 2.11
  53  0.400  0.500  0.503- 132 2.11 151 2.11 152 2.11 155 2.11 153 2.11
  54  0.500  0.400  0.503- 148 2.11 151 2.11 152 2.11 171 2.11 154 2.11
  55  0.400  0.600  0.407- 138 2.11 153 2.11 157 2.11 158 2.11 155 2.11
  56  0.500  0.700  0.407- 162 2.11 158 2.11 157 2.11 177 2.11 156 2.11
  57  0.400  0.700  0.503- 159 2.11 155 2.11 156 2.11 136 2.11 157 2.11
  58  0.500  0.600  0.503- 152 2.11 155 2.11 156 2.11 175 2.11 158 2.11
  59  0.400  0.800  0.407- 157 2.11 142 2.11 161 2.11 162 2.11 159 2.11
  60  0.500  0.900  0.407- 146 2.11 161 2.11 162 2.11 181 2.11 160 2.11
[...]
 188  0.900  0.300  0.503-  90 2.11  89 2.11   9 2.11  94 2.11  88 2.11
 189  0.800  0.300  0.407-  68 2.11  87 2.11  88 2.11  91 2.11  89 2.11
 190  0.900  0.200  0.407-  88 2.11  84 2.11  87 2.11   7 2.11  90 2.11
 191  0.800  0.400  0.503-  74 2.11  89 2.11  93 2.11  94 2.11  91 2.11
 192  0.900  0.500  0.503-  13 2.11  93 2.11  94 2.11  98 2.11  92 2.11
 193  0.800  0.500  0.407-  72 2.11  91 2.11  92 2.11  95 2.11  93 2.11
 194  0.900  0.400  0.407-  11 2.11  88 2.11  91 2.11  92 2.11  94 2.11
 195  0.800  0.600  0.503-  78 2.11  93 2.11  97 2.11  98 2.11  95 2.11
 196  0.900  0.700  0.503- 102 2.11  97 2.11  98 2.11  17 2.11  96 2.11
 197  0.800  0.700  0.407-  76 2.11  99 2.11  96 2.11  95 2.11  97 2.11
 198  0.900  0.600  0.407-  15 2.11  92 2.11  95 2.11  96 2.11  98 2.11
 199  0.800  0.800  0.503-  82 2.11  97 2.11 101 2.11 102 2.11  99 2.11
 200  0.900  0.900  0.503-  21 2.11  86 2.11 101 2.11 102 2.11 100 2.11
 201  0.800  0.900  0.407-  80 2.11  83 2.11  99 2.11 100 2.11 101 2.11
 202  0.900  0.800  0.407-  96 2.11  19 2.11  99 2.11 100 2.11 102 2.11

  LATTYP: Found a simple tetragonal cell.
 ALAT       =    21.1388521970
 C/A-ratio  =     1.0461251639

  Lattice vectors:

 A1 = (  21.1388521970,   0.0000000000,   0.0000000000)
 A2 = (   0.0000000000,  21.1388521970,   0.0000000000)
 A3 = (   0.0000000000,   0.0000000000,  22.1138852197)

Analysis of symmetry for initial positions (statically):
 Subroutine PRICEL returns:
 Original cell was already a primitive cell.

 Routine SETGRP: Setting up the symmetry group for a
 simple tetragonal supercell.

 Subroutine GETGRP returns: Found  8 space group operations
 (whereof  8 operations were pure point group operations)
 out of a pool of 16 trial point group operations.

The static configuration has the point symmetry C_4v.

Analysis of symmetry for dynamics (positions and initial velocities):
 Subroutine PRICEL returns:
 Original cell was already a primitive cell.

 Routine SETGRP: Setting up the symmetry group for a
 simple tetragonal supercell.

 Subroutine GETGRP returns: Found  8 space group operations
 (whereof  8 operations were pure point group operations)
 out of a pool of 16 trial point group operations.

The dynamic configuration has the point symmetry C_4v.

 Subroutine INISYM returns: Found  8 space group operations
 (whereof  8 operations are pure point group operations),
 and found     1 'primitive' translations

                                     Primitive cell

  volume of cell :    9881.6133

  direct lattice vectors                    reciprocal lattice vectors
    21.138852197  0.000000000  0.000000000     0.047306258  0.000000000  0.000000000
     0.000000000 21.138852197  0.000000000     0.000000000  0.047306258  0.000000000
     0.000000000  0.000000000 22.113885220     0.000000000  0.000000000  0.045220457

  length of vectors
    21.138852197 21.138852197 22.113885220     0.047306258  0.047306258  0.045220457

  position of ions in fractional coordinates (direct lattice)
     0.500000000  0.500000000  0.690978901
     0.500000000  0.500000000  0.590413244
     0.000000000  0.000000000  0.406984115
     0.100000000  0.100000000  0.406984115
     0.000000000  0.100000000  0.502574971
     0.100000000  0.000000000  0.502574971
     0.000000000  0.200000000  0.406984115
     0.100000000  0.300000000  0.406984115
     0.000000000  0.300000000  0.502574971
     0.100000000  0.200000000  0.502574971
     0.000000000  0.400000000  0.406984115
     0.100000000  0.500000000  0.406984115
     0.000000000  0.500000000  0.502574971
     0.100000000  0.400000000  0.502574971
     0.000000000  0.600000000  0.406984115
[...]
  501                  map_gather                            0.006680                  6   8
  502                  m_alltoallv_z                         0.041952                  6   8
  503                  map_scatter                           0.004061                  6   8
  504          m_sumb_d                              0.000433                          3   4
  505        fortau                                0.554478                            1   3
  506          m_sumb_d                              0.002814                          1   4
  507        forhar                                0.547341                            1   3
  508          m_sumb_d                              0.000189                          1   4
  509        strehar                               0.019313                            1   3
  510          m_sumb_d                              0.006960                          1   4
  511        m_bcast_d                             0.000637                            2   3
  512      potlok                                0.088204                              1   2
  513        fft3d_mpi                             0.061230                            5   3
  514          fftbrc_mpi                            0.057267                          5   4
  515            fftbas_plan_mpi                       0.057248                        5   5
  516              dfftw_execute                         0.017327                     15   6
  517              map_backward                          0.012536                      4   6
  518                map_gather                            0.002370                    2   7
  519                m_alltoallv_z                         0.008758                    2   7
  520                map_scatter                           0.001362                    2   7
  521              map_forward                           0.023069                      6   6
  522                map_gather                            0.001331                    4   7
  523                m_alltoallv_z                         0.015033                    4   7
  524                map_scatter                           0.006632                    4   7
  525        m_sumb_d                              0.000334                            2   3
  526        fewald                                0.001366                            2   3
  527          rsp                                   0.001258                          2   4
  528          rcp                                   0.000093                          2   4
  529        pothar                                0.002625                            1   3
  530          m_sumb_d                              0.001201                          1   4
  531        m_bcast_d                             0.006160                            1   3
  532      potlok_metagga                        2.009030                              1   2
  533        fft3d_mpi                             0.210479                           17   3
  534          fftbrc_mpi                            0.198064                         17   4
  535            fftbas_plan_mpi                       0.198005                       17   5
  536              dfftw_execute                         0.054390                     51   6
  537              map_forward                           0.076704                     22   6
  538                map_gather                            0.005069                   13   7
  539                m_alltoallv_z                         0.053226                   13   7
  540                map_scatter                           0.017989                   13   7
  541              map_backward                          0.053890                     12   6
  542                map_gather                            0.006596                    6   7
  543                m_alltoallv_z                         0.043297                    6   7
  544                map_scatter                           0.003881                    6   7
  545        m_sumb_d                              0.000480                            3   3
  546        m_bcast_d                             0.013647                            2   3
  547      set_dd_magatom                        0.000001                              1   2
  548      set_dd_paw                            5.024844                              1   2
  549        set_rsgf_all                          0.000003                            1   3
  550        m_sumb_d                              5.024635                            7   3

 Flat profile

 set_kineden                           680.329787          76
 m_sumb_d                              404.941224       15912
 dfftw_execute                         394.512291      132999
 edwav                                 141.146926          56
 potlok_metagga                        115.336972          58
 set_charge                             82.771230          57
 map_scatter                            73.756638       44640
 map_gather                             65.248451       44640
 m_alltoallv_z                          64.881670       44640
 total_time                             53.624429           1
 fftwav_mpi                             43.437546       24264
 lincom                                 33.914207         175
 map_forward                            32.459601       50362
 kinhamil_tau                           27.668019        4434
 fftbas_plan_mpi                        26.198083       44333
 orth1                                  18.872345        3798
 m_alltoall_d                           18.246009       29580
 eddav                                  17.264696           5
 eccp_tau                               11.230677        3159
 fftext_mpi                              6.701500       18492
 choleski                                5.723279          57
 ggemm                                   5.342150         627
 m_bcast_z                               5.305258        1383
 lapack                                  4.007026         492
 vhamil                                  2.931142        1275
 pw_charge                               2.770279        1311
 crrexp_mul_work_add                     2.484719      252096
 eddiag                                  2.383194          29
 rpro1                                   2.128799        1113
 augmentation_charge                     2.074895          57
 crrexp_mul_wave                         1.935032      295728
 potxc_metagga                           1.791026           1
 racc0                                   1.529083         756
 setdij_                                 1.512116          85
 fft3d_mpi                               1.466013       44333
 m_bcast_d                               1.386979        1163
 w1_dscal                                1.204434         756
 rspher_all                              1.171952          14
 redis_pw                                1.160228        4572
 gemm                                    1.007844       99384
 potlok                                  0.961045          58
 phaser                                  0.947161          46
 fortau                                  0.551664           1
 elmin_all                               0.551054           1
 forhar                                  0.547152           1
 forloc                                  0.545361           1
 racc0mu                                 0.380211         492
 rpromu_gemm                             0.364919       18382
 map_backward                            0.362583       38304
 stufak                                  0.326738           1
 stretau                                 0.239524           1
 soft_charge                             0.186995          57
 w1_copy                                 0.165935        1476
 orthch                                  0.157848          57
 redis_proj                              0.155759        4598
 fftbas_mpi                              0.150980       42756
 rpromu                                  0.149028          91
 overl                                   0.146546        1719
 pothar                                  0.084833          58
 rsp                                     0.075450         117
 apply_precond                           0.054533         357
 inisym                                  0.049771           1
 setup_precond                           0.048802         135
 fft_gq                                  0.042844          57
 depsum                                  0.034040          57
 set_dd_paw                              0.027866          59
 overl1                                  0.021902         492
 force_and_stress                        0.016232           1
 densta                                  0.015953          68
 strelo                                  0.014429           1
 strehar                                 0.012353           1
 hamiltmu_tau                            0.012129         492
 brgrid                                  0.010755           1
 hamilt_local_tau                        0.009952         783
 newband                                 0.007330         497
 fewald                                  0.007193         117
 strnlr                                  0.006716           1
 rcp                                     0.006146         117
 fftbrc_mpi                              0.005841        1577
 strkin                                  0.005702           1
 raccmu_                                 0.005674         492
 rpro_isp                                0.003995          13
 fornlr                                  0.002306           1
 w1_projall                              0.001941         357
 posmap                                  0.001773           2
 truncate_high_frequency_w1              0.000636         627
 fordep                                  0.000543           1
 redis_pw_all                            0.000445          56
 crpa_reader                             0.000270           1
 redis_pw_over_bands                     0.000227          57
 set_rsgf_all                            0.000130          59
 proall                                  0.000059           1
 vectorpot                               0.000030           1
 rotate_active_occupied_orbital          0.000019           1
 set_dd_magatom                          0.000012           2
 shift_bands_between_low_high            0.000008           1
  summed up times    2369.33709597588

 Accumulative profile

 total_time                           2369.337096           1
 elmin_all                            2239.523713           1
 set_kineden                           885.731768          76
 fft3d_mpi                             659.042153       44333
 fftbas_plan_mpi                       657.419318       44333
 fftbas_mpi                            621.330614       42756
 edwav                                 614.494278          56
 kinhamil_tau                          502.286821        4434
 fftwav_mpi                            411.441550       24264
 m_sumb_d                              404.941224       15912
 dfftw_execute                         394.512291      132999
 eccp_tau                              369.091570        3159
 set_dd_paw                            296.997642          59
 fftext_mpi                            260.205462       18492
 map_forward                           153.875640       50362
 eddav                                 130.914990           5
 potlok_metagga                        128.866023          58
 set_charge                            124.247175          57
 eddiag                                107.924254          29
 hamilt_local_tau                       90.689955         783
 map_backward                           82.833303       38304
 map_scatter                            73.756638       44640
 map_gather                             65.248451       44640
 m_alltoallv_z                          64.881670       44640
 force_and_stress                       62.157713           1
 hamiltmu_tau                           59.324137         492
 stretau                                45.097968           1
 fftbrc_mpi                             36.245526        1577
 lincom                                 33.914207         175
 soft_charge                            27.284275          57
 orthch                                 26.401779          57
 orth1                                  18.872345        3798
 newband                                18.412169         497
 m_alltoall_d                           18.246009       29580
 redis_pw                               13.769229        4572
 rpro_isp                                7.056718          13
 strnlr                                  5.864478           1
 redis_proj                              5.792767        4598
 choleski                                5.723279          57
 ggemm                                   5.342150         627
 m_bcast_z                               5.305258        1383
 potlok                                  5.213139          58
 rpro1                                   4.080634        1113
 lapack                                  4.007026         492
 racc0                                   3.191839         756
 vhamil                                  2.931142        1275
 augmentation_charge                     2.805260          57
 pw_charge                               2.770279        1311
 crrexp_mul_work_add                     2.484719      252096
 raccmu_                                 2.470800         492
 racc0mu                                 2.443223         492
 fornlr                                  1.971832           1
 potxc_metagga                           1.960009           1
 crrexp_mul_wave                         1.935032      295728
 redis_pw_over_bands                     1.859457          57
 redis_pw_all                            1.859230          56
 setdij_                                 1.835346          85
 m_bcast_d                               1.386979        1163
 w1_projall                              1.298611         357
 w1_dscal                                1.204434         756
 rspher_all                              1.171952          14
 rpromu                                  1.052950          91
 gemm                                    1.007844       99384
 phaser                                  0.947161          46
 fft_gq                                  0.697237          57
 proall                                  0.609892           1
 depsum                                  0.566746          57
 fortau                                  0.554478           1
 forhar                                  0.547341           1
 forloc                                  0.546113           1
 rpromu_gemm                             0.364919       18382
 stufak                                  0.326738           1
 w1_copy                                 0.165935        1476
 overl                                   0.146546        1719
 fordep                                  0.123272           1
 densta                                  0.116820          68
 pothar                                  0.107810          58
 fewald                                  0.095541         117
 rsp                                     0.075450         117
 setup_precond                           0.058509         135
 apply_precond                           0.054533         357
 inisym                                  0.051544           1
 overl1                                  0.021902         492
 strehar                                 0.019313           1
 strelo                                  0.014714           1
 brgrid                                  0.010755           1
 rcp                                     0.006146         117
 strkin                                  0.006001           1
 posmap                                  0.001773           2
 truncate_high_frequency_w1              0.000636         627
 crpa_reader                             0.000270           1
 set_rsgf_all                            0.000130          59
 vectorpot                               0.000030           1
 rotate_active_occupied_orbital          0.000019           1
 set_dd_magatom                          0.000012           2
 shift_bands_between_low_high            0.000008           1

Profiling took   1.028859  0.450193  0.007542  0.006341 seconds
Profiling took   1.359307 seconds