 vasp.6.3.2 27Jun22 (build Jan 05 2024 11:34:19) complex

 executed on           IFC15_impi date 2024.01.08  16:08:34

 INCAR:
   SYSTEM = MgO-rocksalt
   ISMEAR = 0
   SIGMA = 0.05
   EDIFF = 1E-6
   ALGO = ALL
   ISTART = 0
   IBRION = -1
   NSW = 0
   ISYM = 2
   DIPOL = 0.5 0.5 0.5
   IDIPOL = 3
   LDIPOL = .TRUE.
   METAGGA = M06L
   ENCUT = 520
   PREC = Accurate
   LASPH = .TRUE.
   LREAL = Auto
   ISPIN = 1
   NELM = 2000
   NELMIN = 8
   NCORE = 8
   LWAVE = .FALSE.
   LCHARG = .FALSE.

 POTCAR:    PAW_PBE Mg_pv 13Apr2007
 POTCAR:    PAW_PBE O 08Apr2002
 POTCAR:    PAW_PBE Mg_pv 13Apr2007
   VRHFIN =Mg: p6s2

   TITEL  = PAW_PBE Mg_pv 13Apr2007
   POMASS =   24.305; ZVAL   =    8.000    mass and valenz
   ENMAX  =  403.929; ENMIN  =  302.947 eV

   TITEL  = PAW_PBE O 08Apr2002
   POMASS =   16.000; ZVAL   =    6.000    mass and valenz
   ENMAX  =  400.000; ENMIN  =  300.000 eV

 Optimization of the real space projectors (new method)

 maximal supplied QI-value         = 18.90
 optimisation between [QCUT,QGAM] = [ 11.53, 23.24] = [ 37.21,151.29] Ry
 Optimized for a Real-space Cutoff    1.28 Angstroem

   l    n(q)    QCUT    max X(q) W(low)/X(q) W(high)/X(q)  e(spline)
   1      8    11.527     2.974    0.44E-04    0.56E-04    0.12E-06
   1      8    11.527     4.279    0.12E-03    0.12E-03    0.26E-06
   0      9    11.527    16.381    0.46E-04    0.64E-04    0.78E-07
   0      9    11.527     5.611    0.26E-04    0.43E-04    0.55E-07
   2      8    11.527     4.652    0.22E-03    0.72E-04    0.47E-07
 Optimization of the real space projectors (new method)

 maximal supplied QI-value         = 24.76
 optimisation between [QCUT,QGAM] = [ 11.64, 23.27] = [ 37.91,151.63] Ry
 Optimized for a Real-space Cutoff    1.14 Angstroem

   l    n(q)    QCUT    max X(q) W(low)/X(q) W(high)/X(q)  e(spline)
   0      8    11.635    20.381    0.10E-03    0.33E-03    0.24E-06
   0      8    11.635    15.268    0.11E-03    0.35E-03    0.26E-06
   1      7    11.635     5.964    0.24E-03    0.31E-03    0.30E-06
   1      7    11.635     5.382    0.22E-03    0.25E-03    0.26E-06
  PAW_PBE Mg_pv 13Apr2007               :
  PAW_PBE O 08Apr2002                   :

 POSCAR: Mg  O
  positions in direct lattice

 METAGGA = M06L     LMAXTAU =  6    LMIXTAU =  F

 VTST: version 4.1, (05/19/21)

 CHAIN: initializing optimizer

 OPT: Using VASP Dynamics algorithm
 CHAIN: Read ICHAIN            0

 POSCAR: Mg  O
  positions in direct lattice

 ion  position               nearest neighbor table
   1  0.000  0.000  0.407- 103 2.11 104 2.11 119 2.11 184 2.11 101 2.11
   2  0.100  0.100  0.407- 103 2.11 104 2.11 108 2.11 123 2.11 102 2.11
   3  0.000  0.100  0.503- 101 2.11 102 2.11 105 2.11 182 2.11 103 2.11
   4  0.100  0.000  0.503- 101 2.11 102 2.11 118 2.11 121 2.11 104 2.11
   5  0.000  0.200  0.407- 107 2.11 103 2.11 108 2.11 188 2.11 105 2.11
   6  0.100  0.300  0.407- 108 2.11 107 2.11 112 2.11 127 2.11 106 2.11
   7  0.000  0.300  0.503- 105 2.11 106 2.11 109 2.11 186 2.11 107 2.11
   8  0.100  0.200  0.503- 106 2.11 105 2.11 102 2.11 125 2.11 108 2.11
   9  0.000  0.400  0.407- 107 2.11 111 2.11 112 2.11 192 2.11 109 2.11
  10  0.100  0.500  0.407- 111 2.11 112 2.11 116 2.11 131 2.11 110 2.11
  11  0.000  0.500  0.503- 109 2.11 110 2.11 113 2.11 190 2.11 111 2.11
  12  0.100  0.400  0.503- 106 2.11 109 2.11 110 2.11 129 2.11 112 2.11
  13  0.000  0.600  0.407- 111 2.11 115 2.11 116 2.11 196 2.11 113 2.11
  14  0.100  0.700  0.407- 120 2.11 116 2.11 115 2.11 135 2.11 114 2.11
  15  0.000  0.700  0.503- 117 2.11 114 2.11 113 2.11 194 2.11 115 2.11
  16  0.100  0.600  0.503- 110 2.11 113 2.11 114 2.11 133 2.11 116 2.11
  17  0.000  0.800  0.407- 115 2.11 119 2.11 120 2.11 200 2.11 117 2.11
  18  0.100  0.900  0.407- 104 2.11 119 2.11 120 2.11 139 2.11 118 2.11
  19  0.000  0.900  0.503- 101 2.11 117 2.11 118 2.11 198 2.11 119 2.11
  20  0.100  0.800  0.503- 114 2.11 117 2.11 118 2.11 137 2.11 120 2.11
  21  0.200  0.000  0.407- 124 2.11 123 2.11 104 2.11 139 2.11 121 2.11
  22  0.300  0.100  0.407- 123 2.11 124 2.11 128 2.11 143 2.11 122 2.11
  23  0.200  0.100  0.503- 122 2.11 121 2.11 102 2.11 125 2.11 123 2.11
  24  0.300  0.000  0.503- 121 2.11 122 2.11 138 2.11 141 2.11 124 2.11
  25  0.200  0.200  0.407- 127 2.11 128 2.11 108 2.11 123 2.11 125 2.11
  26  0.300  0.300  0.407- 127 2.11 128 2.11 132 2.11 147 2.11 126 2.11
  27  0.200  0.300  0.503- 125 2.11 126 2.11 106 2.11 129 2.11 127 2.11
  28  0.300  0.200  0.503- 125 2.11 126 2.11 122 2.11 145 2.11 128 2.11
  29  0.200  0.400  0.407- 132 2.11 127 2.11 131 2.11 112 2.11 129 2.11
  30  0.300  0.500  0.407- 131 2.11 132 2.11 136 2.11 151 2.11 130 2.11
  31  0.200  0.500  0.503- 130 2.11 129 2.11 110 2.11 133 2.11 131 2.11
  32  0.300  0.400  0.503- 129 2.11 126 2.11 130 2.11 149 2.11 132 2.11
  33  0.200  0.600  0.407- 136 2.11 131 2.11 135 2.11 116 2.11 133 2.11
  34  0.300  0.700  0.407- 135 2.11 140 2.11 136 2.11 155 2.11 134 2.11
  35  0.200  0.700  0.503- 134 2.11 137 2.11 114 2.11 133 2.11 135 2.11
  36  0.300  0.600  0.503- 133 2.11 130 2.11 134 2.11 153 2.11 136 2.11
  37  0.200  0.800  0.407- 135 2.11 140 2.11 139 2.11 120 2.11 137 2.11
  38  0.300  0.900  0.407- 139 2.11 124 2.11 140 2.11 159 2.11 138 2.11
  39  0.200  0.900  0.503- 138 2.11 121 2.11 137 2.11 118 2.11 139 2.11
  40  0.300  0.800  0.503- 134 2.11 137 2.11 138 2.11 157 2.11 140 2.11
  41  0.400  0.000  0.407- 124 2.11 143 2.11 144 2.11 159 2.11 141 2.11
  42  0.500  0.100  0.407- 143 2.11 144 2.11 148 2.11 163 2.11 142 2.11
  43  0.400  0.100  0.503- 122 2.11 141 2.11 142 2.11 145 2.11 143 2.11
  44  0.500  0.000  0.503- 141 2.11 142 2.11 158 2.11 161 2.11 144 2.11
  45  0.400  0.200  0.407- 147 2.11 143 2.11 128 2.11 148 2.11 145 2.11
  46  0.500  0.300  0.407- 148 2.11 147 2.11 152 2.11 167 2.11 146 2.11
  47  0.400  0.300  0.503- 145 2.11 126 2.11 146 2.11 149 2.11 147 2.11
  48  0.500  0.200  0.503- 146 2.11 145 2.11 142 2.11 165 2.11 148 2.11
  49  0.400  0.400  0.407- 132 2.11 147 2.11 151 2.11 152 2.11 149 2.11
  50  0.500  0.500  0.407- 151 2.11 152 2.11 156 2.11 171 2.11 150 2.11
  51  0.400  0.500  0.503- 130 2.11 149 2.11 150 2.11 153 2.11 151 2.11
  52  0.500  0.400  0.503- 146 2.11 149 2.11 150 2.11 169 2.11 152 2.11
  53  0.400  0.600  0.407- 136 2.11 151 2.11 155 2.11 156 2.11 153 2.11
  54  0.500  0.700  0.407- 160 2.11 156 2.11 155 2.11 175 2.11 154 2.11
  55  0.400  0.700  0.503- 157 2.11 153 2.11 154 2.11 134 2.11 155 2.11
  56  0.500  0.600  0.503- 150 2.11 153 2.11 154 2.11 173 2.11 156 2.11
  57  0.400  0.800  0.407- 155 2.11 140 2.11 159 2.11 160 2.11 157 2.11
  58  0.500  0.900  0.407- 144 2.11 159 2.11 160 2.11 179 2.11 158 2.11
  59  0.400  0.900  0.503- 138 2.11 141 2.11 157 2.11 158 2.11 159 2.11
  60  0.500  0.800  0.503- 154 2.11 157 2.11 158 2.11 177 2.11 160 2.11
[...]
 186  0.900  0.300  0.503-  88 2.11  87 2.11   7 2.11  92 2.11  86 2.11
 187  0.800  0.300  0.407-  66 2.11  85 2.11  86 2.11  89 2.11  87 2.11
 188  0.900  0.200  0.407-  86 2.11  82 2.11  85 2.11   5 2.11  88 2.11
 189  0.800  0.400  0.503-  72 2.11  87 2.11  91 2.11  92 2.11  89 2.11
 190  0.900  0.500  0.503-  11 2.11  91 2.11  92 2.11  96 2.11  90 2.11
 191  0.800  0.500  0.407-  70 2.11  89 2.11  90 2.11  93 2.11  91 2.11
 192  0.900  0.400  0.407-   9 2.11  86 2.11  89 2.11  90 2.11  92 2.11
 193  0.800  0.600  0.503-  76 2.11  91 2.11  95 2.11  96 2.11  93 2.11
 194  0.900  0.700  0.503- 100 2.11  95 2.11  96 2.11  15 2.11  94 2.11
 195  0.800  0.700  0.407-  74 2.11  97 2.11  94 2.11  93 2.11  95 2.11
 196  0.900  0.600  0.407-  13 2.11  90 2.11  93 2.11  94 2.11  96 2.11
 197  0.800  0.800  0.503-  80 2.11  95 2.11  99 2.11 100 2.11  97 2.11
 198  0.900  0.900  0.503-  19 2.11  84 2.11  99 2.11 100 2.11  98 2.11
 199  0.800  0.900  0.407-  78 2.11  81 2.11  97 2.11  98 2.11  99 2.11
 200  0.900  0.800  0.407-  94 2.11  17 2.11  97 2.11  98 2.11 100 2.11

  LATTYP: Found a simple tetragonal cell.
 ALAT       =    21.1388521970
 C/A-ratio  =     1.0461251639

  Lattice vectors:

 A1 = (  21.1388521970,   0.0000000000,   0.0000000000)
 A2 = (   0.0000000000,  21.1388521970,   0.0000000000)
 A3 = (   0.0000000000,   0.0000000000,  22.1138852197)

Analysis of symmetry for initial positions (statically):
 Subroutine PRICEL returns following result:

[...]

  50 primitive cells build up your supercell.

 Routine SETGRP: Setting up the symmetry group for a
 simple tetragonal supercell.

 Subroutine GETGRP returns: Found 16 space group operations
 (whereof  8 operations were pure point group operations)
 out of a pool of 16 trial point group operations.

The static configuration has the point symmetry C_4v.
 The point group associated with its full space group is D_4h.

Analysis of symmetry for dynamics (positions and initial velocities):
 Subroutine PRICEL returns following result:

  LATTYP: Found a simple tetragonal cell.
 ALAT       =     2.9894851470
 C/A-ratio  =     7.3972219738

  Lattice vectors:

 A1 = (   2.1138852197,  -2.1138852197,   0.0000000000)
 A2 = (   2.1138852197,   2.1138852197,   0.0000000000)
 A3 = (   0.0000000000,   0.0000000000,  22.1138852197)

  50 primitive cells build up your supercell.

 Routine SETGRP: Setting up the symmetry group for a
 simple tetragonal supercell.

 Subroutine GETGRP returns: Found 16 space group operations
 (whereof  8 operations were pure point group operations)
 out of a pool of 16 trial point group operations.

The dynamic configuration has the point symmetry C_4v.
 The point group associated with its full space group is D_4h.

 Subroutine INISYM returns: Found 16 space group operations
 (whereof  8 operations are pure point group operations),
 and found    50 'primitive' translations

                                     Primitive cell

  volume of cell :     197.6323

  direct lattice vectors                    reciprocal lattice vectors
     2.113885220 -2.113885220  0.000000000     0.236531291 -0.236531291  0.000000000
     2.113885220  2.113885220  0.000000000     0.236531291  0.236531291  0.000000000
     0.000000000  0.000000000 22.113885220     0.000000000  0.000000000  0.045220457

  length of vectors
     2.989485147  2.989485147 22.113885220     0.334505760  0.334505760  0.045220457

  position of ions in fractional coordinates (direct lattice)
     0.000000000  0.000000000  0.406984115
     0.500000000  0.500000000  0.502574971
     0.000000000  0.000000000  0.502574971
     0.500000000  0.500000000  0.406984115

  ion indices of the primitive-cell ions
   primitive index   ion index
                 1           1
                 2           3
                 3         101
                 4         103

 KPOINTS: KPOINTS created by Atomic Simulation Env

Automatic generation of k-mesh.
 Grid dimensions read from file:
 generate k-points for:    1    1    1

 Generating k-lattice:

  Cartesian coordinates                     Fractional coordinates (reciprocal lattice)
     0.047306258  0.000000000  0.000000000     1.000000000  0.000000000  0.000000000
     0.000000000  0.047306258  0.000000000     0.000000000  1.000000000  0.000000000
[...]
  501                  map_gather                            0.006896                  6   8
  502                  m_alltoallv_z                         0.032243                  6   8
  503                  map_scatter                           0.004028                  6   8
  504          m_sumb_d                              0.000579                          3   4
  505        fortau                                0.549090                            1   3
  506          m_sumb_d                              0.001036                          1   4
  507        forhar                                0.542328                            1   3
  508          m_sumb_d                              0.003619                          1   4
  509        strehar                               0.015544                            1   3
  510          m_sumb_d                              0.006621                          1   4
  511        m_bcast_d                             0.000759                            2   3
  512      potlok                                0.083665                              1   2
  513        fft3d_mpi                             0.059493                            5   3
  514          fftbrc_mpi                            0.055442                          5   4
  515            fftbas_plan_mpi                       0.055430                        5   5
  516              dfftw_execute                         0.017904                     15   6
  517              map_backward                          0.012791                      4   6
  518                map_gather                            0.002390                    2   7
  519                m_alltoallv_z                         0.009082                    2   7
  520                map_scatter                           0.001273                    2   7
  521              map_forward                           0.021263                      6   6
  522                map_gather                            0.001217                    4   7
  523                m_alltoallv_z                         0.012255                    4   7
  524                map_scatter                           0.007719                    4   7
  525        m_sumb_d                              0.001124                            2   3
  526        fewald                                0.001281                            2   3
  527          rsp                                   0.001174                          2   4
  528          rcp                                   0.000093                          2   4
  529        pothar                                0.002393                            1   3
  530          m_sumb_d                              0.000873                          1   4
  531        m_bcast_d                             0.006343                            1   3
  532      potlok_metagga                        2.012708                              1   2
  533        fft3d_mpi                             0.214269                           17   3
  534          fftbrc_mpi                            0.201682                         17   4
  535            fftbas_plan_mpi                       0.201625                       17   5
  536              dfftw_execute                         0.058539                     51   6
  537              map_forward                           0.075861                     22   6
  538                map_gather                            0.005168                   13   7
  539                m_alltoallv_z                         0.056063                   13   7
  540                map_scatter                           0.014389                   13   7
  541              map_backward                          0.054341                     12   6
  542                map_gather                            0.006648                    6   7
  543                m_alltoallv_z                         0.043411                    6   7
  544                map_scatter                           0.004064                    6   7
  545        m_sumb_d                              0.000428                            3   3
  546        m_bcast_d                             0.014492                            2   3
  547      set_dd_magatom                        0.000001                              1   2
  548      set_dd_paw                            5.001963                              1   2
  549        set_rsgf_all                          0.000002                            1   3
  550        m_sumb_d                              5.001786                            7   3

 Flat profile

 set_kineden                          1540.379643          60
 m_sumb_d                              306.764422       12509
 dfftw_execute                         301.601382      101121
 set_charge                            184.701309          41
 edwav                                 103.621422          40
 potlok_metagga                         85.205245          42
 map_scatter                            56.219226       33934
 m_alltoall_d                           54.614954       22173
 total_time                             52.782931           1
 map_gather                             49.945044       33934
 m_alltoallv_z                          37.877859       33934
 fftwav_mpi                             34.736732       18626
 map_forward                            25.415753       38606
 lincom                                 24.672263         127
 kinhamil_tau                           21.072399        3345
 fftbas_plan_mpi                        19.952918       33707
 eddav                                  16.761229           5
 orth1                                  15.117528        3123
 eccp_tau                                8.292662        2295
 ggemm                                   5.254095         618
 m_bcast_z                               5.180043        1374
 fftext_mpi                              5.099668       13920
 augmentation_charge                     4.190359          41
 choleski                                4.122981          41
 lapack                                  3.899046         483
 vhamil                                  2.454674        1050
 crrexp_mul_work_add                     2.026339      204600
 pw_charge                               1.906546         902
 potxc_metagga                           1.802303           1
 eddiag                                  1.747061          21
 rpro1                                   1.638217         888
 crrexp_mul_wave                         1.587213      247800
 m_bcast_d                               1.104174        1097
 fft3d_mpi                               1.099570       33707
 setdij_                                 1.073502          69
 racc0                                   1.024505         540
 gemm                                    0.951923       96600
 redis_pw                                0.885126        3641
 w1_dscal                                0.869535         540
 rspher_all                              0.793061          14
 phaser                                  0.770633          38
 forloc                                  0.549497           1
 fortau                                  0.548054           1
 forhar                                  0.538709           1
 potlok                                  0.503624          42
 elmin_all                               0.467051           1
 racc0mu                                 0.368758         483
 rpromu_gemm                             0.353832       18200
 stufak                                  0.323411           1
 map_backward                            0.276896       28808
 posmap                                  0.192931           2
 stretau                                 0.182321           1
 inisym                                  0.161669           1
 w1_copy                                 0.157139        1449
 rpromu                                  0.149872          91
 soft_charge                             0.119490          41
 redis_proj                              0.116674        3738
 fftbas_mpi                              0.114938       32546
 orthch                                  0.111998          41
 overl                                   0.107156        1453
 pothar                                  0.062809          42
 rsp                                     0.056700          85
 apply_precond                           0.051694         348
 setup_precond                           0.048454         135
 fft_gq                                  0.030966          41
 force_and_stress                        0.030563           1
 depsum                                  0.023949          41
 overl1                                  0.018789         483
 densta                                  0.012311          52
 hamiltmu_tau                            0.011132         483
 strehar                                 0.008923           1
 set_dd_paw                              0.008756          43
 strelo                                  0.008359           1
 hamilt_local_tau                        0.007416         567
 fewald                                  0.007187          85
 newband                                 0.007111         488
 strnlr                                  0.006226           1
 strkin                                  0.006036           1
 rpro_isp                                0.005688          13
 raccmu_                                 0.005400         483
 rcp                                     0.004651          85
 fftbrc_mpi                              0.003811        1161
 fornlr                                  0.002220           1
 w1_projall                              0.001810         348
 brgrid                                  0.001282           1
 truncate_high_frequency_w1              0.000656         618
 fordep                                  0.000494           1
 redis_pw_all                            0.000333          40
 crpa_reader                             0.000237           1
 redis_pw_over_bands                     0.000166          41
 set_rsgf_all                            0.000099          43
 proall                                  0.000055           1
 set_dd_magatom                          0.000055           2
 vectorpot                               0.000043           1
 rotate_active_occupied_orbital          0.000019           1
 shift_bands_between_low_high            0.000008           1
  summed up times    2994.99392104149

 Accumulative profile

 total_time                           2994.993921           1
 elmin_all                            2841.181178           1
 set_kineden                          1686.906924          60
 fft3d_mpi                             492.507396       33707
 fftbas_plan_mpi                       491.289077       33707
 edwav                                 477.228502          40
 fftbas_mpi                            476.840042       32546
 kinhamil_tau                          383.981869        3345
 fftwav_mpi                            318.359359       18626
 m_sumb_d                              306.764422       12509
 dfftw_execute                         301.601382      101121
 eccp_tau                              271.650030        2295
 set_charge                            217.638523          41
 set_dd_paw                            215.653070          43
 fftext_mpi                            198.455862       13920
 eddav                                 140.435344           5
 map_forward                           105.867153       38606
 potlok_metagga                         95.109808          42
 force_and_stress                       86.864021           1
 eddiag                                 85.062204          21
 stretau                                69.968259           1
 hamilt_local_tau                       66.565684         567
 map_backward                           63.867624       28808
 hamiltmu_tau                           59.024624         483
 map_scatter                            56.219226       33934
 m_alltoall_d                           54.614954       22173
 map_gather                             49.945044       33934
 redis_pw                               42.696754        3641
 m_alltoallv_z                          37.877859       33934
 lincom                                 24.672263         127
 soft_charge                            20.409206          41
 orthch                                 19.006310          41
 newband                                18.698951         488
 orth1                                  15.117528        3123
 fftbrc_mpi                             14.567784        1161
 redis_proj                             12.920001        3738
 rpro_isp                                7.003800          13
 strnlr                                  5.817601           1
 ggemm                                   5.254095         618
 m_bcast_z                               5.180043        1374
 augmentation_charge                     4.672014          41
 choleski                                4.122981          41
 lapack                                  3.899046         483
 potlok                                  3.516095          42
 rpro1                                   2.992062         888
 vhamil                                  2.454674        1050
 raccmu_                                 2.391360         483
 racc0mu                                 2.367172         483
 racc0                                   2.187909         540
 crrexp_mul_work_add                     2.026339      204600
 potxc_metagga                           1.960845           1
 fornlr                                  1.951079           1
 pw_charge                               1.906546         902
 crrexp_mul_wave                         1.587213      247800
 redis_pw_over_bands                     1.344357          41
 redis_pw_all                            1.344191          40
 setdij_                                 1.238652          69
 w1_projall                              1.181281         348
 m_bcast_d                               1.104174        1097
 rpromu                                  0.992283          91
 gemm                                    0.951923       96600
 w1_dscal                                0.869535         540
 rspher_all                              0.793061          14
 phaser                                  0.770633          38
 proall                                  0.607280           1
 forloc                                  0.549745           1
 fortau                                  0.549090           1
 forhar                                  0.542328           1
 fft_gq                                  0.532300          41
 inisym                                  0.354600           1
 rpromu_gemm                             0.353832       18200
 stufak                                  0.323411           1
 posmap                                  0.192931           2
 depsum                                  0.185242          41
 w1_copy                                 0.157139        1449
 overl                                   0.107156        1453
 fordep                                  0.103246           1
 pothar                                  0.100644          42
 densta                                  0.098258          52
 fewald                                  0.074347          85
 setup_precond                           0.060106         135
 rsp                                     0.056700          85
 apply_precond                           0.051694         348
 overl1                                  0.018789         483
 strehar                                 0.015544           1
 strelo                                  0.008942           1
 strkin                                  0.006361           1
 rcp                                     0.004651          85
 brgrid                                  0.001282           1
 truncate_high_frequency_w1              0.000656         618
 crpa_reader                             0.000237           1
 set_rsgf_all                            0.000099          43
 set_dd_magatom                          0.000055           2
 vectorpot                               0.000043           1
 rotate_active_occupied_orbital          0.000019           1
 shift_bands_between_low_high            0.000008           1

Profiling took   0.826749  0.367592  0.007546  0.006407 seconds
Profiling took   1.072647 seconds