 vasp.6.3.2 27Jun22 (build Jan 05 2024 11:34:19) complex

 executed on           IFC15_impi date 2024.01.08  22:03:33

 INCAR:
   SYSTEM = MgO-rocksalt
   ISMEAR = 0
   SIGMA = 0.05
   EDIFF = 1E-6
   ALGO = ALL
   ISTART = 0
   IBRION = -1
   NSW = 0
   ISYM = 2
   DIPOL = 0.5 0.5 0.5
   IDIPOL = 3
   LDIPOL = .TRUE.
   METAGGA = M06L
   ENCUT = 520
   PREC = Accurate
   LASPH = .TRUE.
   LREAL = Auto
   ISPIN = 1
   NELM = 2000
   NELMIN = 8
   NCORE = 8
   LWAVE = .FALSE.
   LCHARG = .FALSE.

 POTCAR:    PAW_PBE Au 04Oct2007
 POTCAR:    PAW_PBE Mg_pv 13Apr2007
 POTCAR:    PAW_PBE O 08Apr2002
 POTCAR:    PAW_PBE Au 04Oct2007
   VRHFIN =Au: s1d10

   TITEL  = PAW_PBE Au 04Oct2007
   POMASS =  196.966; ZVAL   =   11.000    mass and valenz
   ENMAX  =  229.943; ENMIN  =  172.457 eV

   TITEL  = PAW_PBE Mg_pv 13Apr2007
   POMASS =   24.305; ZVAL   =    8.000    mass and valenz
   ENMAX  =  403.929; ENMIN  =  302.947 eV

   TITEL  = PAW_PBE O 08Apr2002
   POMASS =   16.000; ZVAL   =    6.000    mass and valenz
   ENMAX  =  400.000; ENMIN  =  300.000 eV

 Optimization of the real space projectors (new method)

 maximal supplied QI-value         = 15.12
 optimisation between [QCUT,QGAM] = [ 11.64, 23.28] = [ 37.95,151.78] Ry
 Optimized for a Real-space Cutoff    1.49 Angstroem

   l    n(q)    QCUT    max X(q) W(low)/X(q) W(high)/X(q)  e(spline)
   2      9    11.641    60.898    0.24E-03    0.10E-03    0.19E-06
   2      9    11.641    58.894    0.25E-03    0.10E-03    0.19E-06
   0     10    11.641   109.617    0.73E-04    0.33E-04    0.11E-06
   0     10    11.641    75.026    0.71E-04    0.32E-04    0.11E-06
   1     10    11.641    16.344    0.27E-04    0.97E-04    0.16E-06
   1     10    11.641    10.160    0.23E-04    0.77E-04    0.13E-06
 Optimization of the real space projectors (new method)

[...]

   l    n(q)    QCUT    max X(q) W(low)/X(q) W(high)/X(q)  e(spline)
   1      8    11.527     2.974    0.44E-04    0.56E-04    0.12E-06
   1      8    11.527     4.279    0.12E-03    0.12E-03    0.26E-06
   0      9    11.527    16.381    0.46E-04    0.64E-04    0.78E-07
   0      9    11.527     5.611    0.26E-04    0.43E-04    0.55E-07
   2      8    11.527     4.652    0.22E-03    0.72E-04    0.47E-07
 Optimization of the real space projectors (new method)

 maximal supplied QI-value         = 24.76
 optimisation between [QCUT,QGAM] = [ 11.64, 23.27] = [ 37.91,151.63] Ry
 Optimized for a Real-space Cutoff    1.14 Angstroem

   l    n(q)    QCUT    max X(q) W(low)/X(q) W(high)/X(q)  e(spline)
   0      8    11.635    20.381    0.10E-03    0.33E-03    0.24E-06
   0      8    11.635    15.268    0.11E-03    0.35E-03    0.26E-06
   1      7    11.635     5.964    0.24E-03    0.31E-03    0.30E-06
   1      7    11.635     5.382    0.22E-03    0.25E-03    0.26E-06
  PAW_PBE Au 04Oct2007                  :
  PAW_PBE Mg_pv 13Apr2007               :
  PAW_PBE O 08Apr2002                   :

 POSCAR: Au Mg  O
  positions in direct lattice

 METAGGA = M06L     LMAXTAU =  6    LMIXTAU =  F

 VTST: version 4.1, (05/19/21)

 CHAIN: initializing optimizer

 OPT: Using VASP Dynamics algorithm
 CHAIN: Read ICHAIN            0

 POSCAR: Au Mg  O
  positions in direct lattice

 ion  position               nearest neighbor table
   1  0.543  0.557  0.621-   2 2.56  58 2.91
   2  0.457  0.643  0.621-   1 2.56  58 2.91
   3  0.000  0.000  0.407- 105 2.11 106 2.11 121 2.11 186 2.11 103 2.11
   4  0.100  0.100  0.407- 105 2.11 106 2.11 110 2.11 125 2.11 104 2.11
   5  0.000  0.100  0.503- 103 2.11 104 2.11 107 2.11 184 2.11 105 2.11
   6  0.100  0.000  0.503- 103 2.11 104 2.11 120 2.11 123 2.11 106 2.11
   7  0.000  0.200  0.407- 109 2.11 105 2.11 110 2.11 190 2.11 107 2.11
   8  0.100  0.300  0.407- 110 2.11 109 2.11 114 2.11 129 2.11 108 2.11
   9  0.000  0.300  0.503- 107 2.11 108 2.11 111 2.11 188 2.11 109 2.11
  10  0.100  0.200  0.503- 108 2.11 107 2.11 104 2.11 127 2.11 110 2.11
  11  0.000  0.400  0.407- 109 2.11 113 2.11 114 2.11 194 2.11 111 2.11
  12  0.100  0.500  0.407- 113 2.11 114 2.11 118 2.11 133 2.11 112 2.11
  13  0.000  0.500  0.503- 111 2.11 112 2.11 115 2.11 192 2.11 113 2.11
  14  0.100  0.400  0.503- 108 2.11 111 2.11 112 2.11 131 2.11 114 2.11
  15  0.000  0.600  0.407- 113 2.11 117 2.11 118 2.11 198 2.11 115 2.11
  16  0.100  0.700  0.407- 122 2.11 118 2.11 117 2.11 137 2.11 116 2.11
  17  0.000  0.700  0.503- 119 2.11 116 2.11 115 2.11 196 2.11 117 2.11
  18  0.100  0.600  0.503- 112 2.11 115 2.11 116 2.11 135 2.11 118 2.11
  19  0.000  0.800  0.407- 117 2.11 121 2.11 122 2.11 202 2.11 119 2.11
  20  0.100  0.900  0.407- 106 2.11 121 2.11 122 2.11 141 2.11 120 2.11
  21  0.000  0.900  0.503- 103 2.11 119 2.11 120 2.11 200 2.11 121 2.11
  22  0.100  0.800  0.503- 116 2.11 119 2.11 120 2.11 139 2.11 122 2.11
  23  0.200  0.000  0.407- 126 2.11 125 2.11 106 2.11 141 2.11 123 2.11
  24  0.300  0.100  0.407- 125 2.11 126 2.11 130 2.11 145 2.11 124 2.11
  25  0.200  0.100  0.503- 124 2.11 123 2.11 104 2.11 127 2.11 125 2.11
  26  0.300  0.000  0.503- 123 2.11 124 2.11 140 2.11 143 2.11 126 2.11
  27  0.200  0.200  0.407- 129 2.11 130 2.11 110 2.11 125 2.11 127 2.11
  28  0.300  0.300  0.407- 129 2.11 130 2.11 134 2.11 149 2.11 128 2.11
  29  0.200  0.300  0.503- 127 2.11 128 2.11 108 2.11 131 2.11 129 2.11
  30  0.300  0.200  0.503- 127 2.11 128 2.11 124 2.11 147 2.11 130 2.11
  31  0.200  0.400  0.407- 134 2.11 129 2.11 133 2.11 114 2.11 131 2.11
  32  0.300  0.500  0.407- 133 2.11 134 2.11 138 2.11 153 2.11 132 2.11
  33  0.200  0.500  0.503- 132 2.11 131 2.11 112 2.11 135 2.11 133 2.11
  34  0.300  0.400  0.503- 131 2.11 128 2.11 132 2.11 151 2.11 134 2.11
  35  0.200  0.600  0.407- 138 2.11 133 2.11 137 2.11 118 2.11 135 2.11
  36  0.300  0.700  0.407- 137 2.11 142 2.11 138 2.11 157 2.11 136 2.11
  37  0.200  0.700  0.503- 136 2.11 139 2.11 116 2.11 135 2.11 137 2.11
  38  0.300  0.600  0.503- 135 2.11 132 2.11 136 2.11 155 2.11 138 2.11
  39  0.200  0.800  0.407- 137 2.11 142 2.11 141 2.11 122 2.11 139 2.11
  40  0.300  0.900  0.407- 141 2.11 126 2.11 142 2.11 161 2.11 140 2.11
  41  0.200  0.900  0.503- 140 2.11 123 2.11 139 2.11 120 2.11 141 2.11
  42  0.300  0.800  0.503- 136 2.11 139 2.11 140 2.11 159 2.11 142 2.11
  43  0.400  0.000  0.407- 126 2.11 145 2.11 146 2.11 161 2.11 143 2.11
  44  0.500  0.100  0.407- 145 2.11 146 2.11 150 2.11 165 2.11 144 2.11
  45  0.400  0.100  0.503- 124 2.11 143 2.11 144 2.11 147 2.11 145 2.11
  46  0.500  0.000  0.503- 143 2.11 144 2.11 160 2.11 163 2.11 146 2.11
  47  0.400  0.200  0.407- 149 2.11 145 2.11 130 2.11 150 2.11 147 2.11
  48  0.500  0.300  0.407- 150 2.11 149 2.11 154 2.11 169 2.11 148 2.11
  49  0.400  0.300  0.503- 147 2.11 128 2.11 148 2.11 151 2.11 149 2.11
  50  0.500  0.200  0.503- 148 2.11 147 2.11 144 2.11 167 2.11 150 2.11
  51  0.400  0.400  0.407- 134 2.11 149 2.11 153 2.11 154 2.11 151 2.11
  52  0.500  0.500  0.407- 153 2.11 154 2.11 158 2.11 173 2.11 152 2.11
  53  0.400  0.500  0.503- 132 2.11 151 2.11 152 2.11 155 2.11 153 2.11
  54  0.500  0.400  0.503- 148 2.11 151 2.11 152 2.11 171 2.11 154 2.11
  55  0.400  0.600  0.407- 138 2.11 153 2.11 157 2.11 158 2.11 155 2.11
  56  0.500  0.700  0.407- 162 2.11 158 2.11 157 2.11 177 2.11 156 2.11
  57  0.400  0.700  0.503- 159 2.11 155 2.11 156 2.11 136 2.11 157 2.11
  58  0.500  0.600  0.503- 152 2.11 155 2.11 156 2.11 175 2.11 158 2.11   2 2.91   1 2.91
  59  0.400  0.800  0.407- 157 2.11 142 2.11 161 2.11 162 2.11 159 2.11
  60  0.500  0.900  0.407- 146 2.11 161 2.11 162 2.11 181 2.11 160 2.11
[...]
 188  0.900  0.300  0.503-  90 2.11  89 2.11   9 2.11  94 2.11  88 2.11
 189  0.800  0.300  0.407-  68 2.11  87 2.11  88 2.11  91 2.11  89 2.11
 190  0.900  0.200  0.407-  88 2.11  84 2.11  87 2.11   7 2.11  90 2.11
 191  0.800  0.400  0.503-  74 2.11  89 2.11  93 2.11  94 2.11  91 2.11
 192  0.900  0.500  0.503-  13 2.11  93 2.11  94 2.11  98 2.11  92 2.11
 193  0.800  0.500  0.407-  72 2.11  91 2.11  92 2.11  95 2.11  93 2.11
 194  0.900  0.400  0.407-  11 2.11  88 2.11  91 2.11  92 2.11  94 2.11
 195  0.800  0.600  0.503-  78 2.11  93 2.11  97 2.11  98 2.11  95 2.11
 196  0.900  0.700  0.503- 102 2.11  97 2.11  98 2.11  17 2.11  96 2.11
 197  0.800  0.700  0.407-  76 2.11  99 2.11  96 2.11  95 2.11  97 2.11
 198  0.900  0.600  0.407-  15 2.11  92 2.11  95 2.11  96 2.11  98 2.11
 199  0.800  0.800  0.503-  82 2.11  97 2.11 101 2.11 102 2.11  99 2.11
 200  0.900  0.900  0.503-  21 2.11  86 2.11 101 2.11 102 2.11 100 2.11
 201  0.800  0.900  0.407-  80 2.11  83 2.11  99 2.11 100 2.11 101 2.11
 202  0.900  0.800  0.407-  96 2.11  19 2.11  99 2.11 100 2.11 102 2.11

  LATTYP: Found a simple tetragonal cell.
 ALAT       =    21.1388521970
 C/A-ratio  =     1.0461251639

  Lattice vectors:

 A1 = (  21.1388521970,   0.0000000000,   0.0000000000)
 A2 = (   0.0000000000,  21.1388521970,   0.0000000000)
 A3 = (   0.0000000000,   0.0000000000,  22.1138852197)

Analysis of symmetry for initial positions (statically):
 Subroutine PRICEL returns:
 Original cell was already a primitive cell.

 Routine SETGRP: Setting up the symmetry group for a
 simple tetragonal supercell.

 Subroutine GETGRP returns: Found  4 space group operations
 (whereof  1 operations were pure point group operations)
 out of a pool of 16 trial point group operations.

The static configuration has the point symmetry C_1 .
 The point group associated with its full space group is C_2v.

Analysis of symmetry for dynamics (positions and initial velocities):
 Subroutine PRICEL returns:
 Original cell was already a primitive cell.

 Routine SETGRP: Setting up the symmetry group for a
 simple tetragonal supercell.

 Subroutine GETGRP returns: Found  4 space group operations
 (whereof  1 operations were pure point group operations)
 out of a pool of 16 trial point group operations.

The dynamic configuration has the point symmetry C_1 .
 The point group associated with its full space group is C_2v.

 Subroutine INISYM returns: Found  4 space group operations
 (whereof  1 operations are pure point group operations),
 and found     1 'primitive' translations

                                     Primitive cell

  volume of cell :    9881.6133

  direct lattice vectors                    reciprocal lattice vectors
    21.138852197  0.000000000  0.000000000     0.047306258  0.000000000  0.000000000
     0.000000000 21.138852197  0.000000000     0.000000000  0.047306258  0.000000000
     0.000000000  0.000000000 22.113885220     0.000000000  0.000000000  0.045220457

  length of vectors
    21.138852197 21.138852197 22.113885220     0.047306258  0.047306258  0.045220457

  position of ions in fractional coordinates (direct lattice)
     0.542815811  0.557184154  0.620909636
     0.457184189  0.642815775  0.620909636
     0.000000000  0.000000000  0.406984115
     0.100000000  0.100000000  0.406984115
     0.000000000  0.100000000  0.502574971
     0.100000000  0.000000000  0.502574971
     0.000000000  0.200000000  0.406984115
     0.100000000  0.300000000  0.406984115
     0.000000000  0.300000000  0.502574971
     0.100000000  0.200000000  0.502574971
     0.000000000  0.400000000  0.406984115
[...]
  501                  map_gather                            0.006825                  6   8
  502                  m_alltoallv_z                         0.035428                  6   8
  503                  map_scatter                           0.004250                  6   8
  504          m_sumb_d                              0.000863                          3   4
  505        fortau                                0.558397                            1   3
  506          m_sumb_d                              0.001133                          1   4
  507        forhar                                0.554039                            1   3
  508          m_sumb_d                              0.002231                          1   4
  509        strehar                               0.019687                            1   3
  510          m_sumb_d                              0.007150                          1   4
  511        m_bcast_d                             0.000692                            2   3
  512      potlok                                0.089528                              1   2
  513        fft3d_mpi                             0.058216                            5   3
  514          fftbrc_mpi                            0.053994                          5   4
  515            fftbas_plan_mpi                       0.053979                        5   5
  516              dfftw_execute                         0.017781                     15   6
  517              map_backward                          0.012777                      4   6
  518                map_gather                            0.002272                    2   7
  519                m_alltoallv_z                         0.009076                    2   7
  520                map_scatter                           0.001380                    2   7
  521              map_forward                           0.019635                      6   6
  522                map_gather                            0.001268                    4   7
  523                m_alltoallv_z                         0.011999                    4   7
  524                map_scatter                           0.006294                    4   7
  525        m_sumb_d                              0.000423                            2   3
  526        fewald                                0.001358                            2   3
  527          rsp                                   0.001250                          2   4
  528          rcp                                   0.000096                          2   4
  529        pothar                                0.001591                            1   3
  530          m_sumb_d                              0.000144                          1   4
  531        m_bcast_d                             0.010010                            1   3
  532      potlok_metagga                        2.029823                              1   2
  533        fft3d_mpi                             0.223213                           17   3
  534          fftbrc_mpi                            0.210653                         17   4
  535            fftbas_plan_mpi                       0.210599                       17   5
  536              dfftw_execute                         0.054145                     51   6
  537              map_forward                           0.090205                     22   6
  538                map_gather                            0.005038                   13   7
  539                m_alltoallv_z                         0.065424                   13   7
  540                map_scatter                           0.019409                   13   7
  541              map_backward                          0.054043                     12   6
  542                map_gather                            0.006781                    6   7
  543                m_alltoallv_z                         0.043276                    6   7
  544                map_scatter                           0.003869                    6   7
  545        m_sumb_d                              0.000468                            3   3
  546        m_bcast_d                             0.019112                            2   3
  547      set_dd_magatom                        0.000000                              1   2
  548      set_dd_paw                            4.995760                              1   2
  549        set_rsgf_all                          0.000002                            1   3
  550        m_sumb_d                              4.995558                            7   3

 Flat profile

 set_kineden                           646.662307          62
 dfftw_execute                         311.927706      105075
 m_sumb_d                              308.606388       12906
 edwav                                  97.699005          42
 potlok_metagga                         88.715841          44
 set_charge                             77.301908          43
 map_scatter                            58.413178       35262
 total_time                             52.951750           1
 map_gather                             51.629412       35262
 m_alltoallv_z                          41.801193       35262
 fftwav_mpi                             34.615805       19341
 map_forward                            25.894984       40096
 lincom                                 25.795318         133
 kinhamil_tau                           21.756613        3476
 fftbas_plan_mpi                        20.774698       35025
 eddav                                  17.544585           5
 orth1                                  15.475616        3192
 m_alltoall_d                           13.506998       23063
 eccp_tau                                8.587454        2403
 fftext_mpi                              5.285208       14471
 m_bcast_z                               5.260181        1370
 ggemm                                   5.175321         614
 choleski                                4.326024          43
 lapack                                  3.780762         479
 eddiag                                  2.771466          22
 vhamil                                  2.485505        1073
 crrexp_mul_work_add                     2.096374      211292
 pw_charge                               2.073732         989
 augmentation_charge                     1.880290          43
 potxc_metagga                           1.801860           1
 setdij_                                 1.775162          71
 rpro1                                   1.744206         911
 crrexp_mul_wave                         1.678407      254924
 m_bcast_d                               1.300773        1095
 racc0                                   1.146216         567
 fft3d_mpi                               1.126341       35025
 rspher_all                              1.118011          14
 gemm                                    0.976848       96758
 redis_pw                                0.919927        3742
 w1_dscal                                0.913291         567
 phaser                                  0.805234          39
 potlok                                  0.768039          44
 fortau                                  0.557264           1
 forhar                                  0.551808           1
 forloc                                  0.550837           1
 elmin_all                               0.389661           1
 rpromu_gemm                             0.371615       18382
 racc0mu                                 0.370547         479
 stufak                                  0.328619           1
 map_backward                            0.293268       29954
 stretau                                 0.240865           1
 w1_copy                                 0.160700        1437
 rpromu                                  0.151678          91
 soft_charge                             0.137123          43
 redis_proj                              0.124708        3825
 orthch                                  0.124424          43
 fftbas_mpi                              0.120735       33812
 overl                                   0.120621        1476
 pothar                                  0.065147          44
 rsp                                     0.058000          89
 inisym                                  0.051058           1
 apply_precond                           0.050826         344
 setup_precond                           0.047330         135
 fft_gq                                  0.032473          43
 depsum                                  0.025353          43
 overl1                                  0.022001         479
 set_dd_paw                              0.020206          45
 force_and_stress                        0.015995           1
 densta                                  0.012780          54
 strehar                                 0.012537           1
 hamiltmu_tau                            0.011271         479
 strelo                                  0.010827           1
 hamilt_local_tau                        0.007694         594
 newband                                 0.007385         484
 strnlr                                  0.006862           1
 fewald                                  0.006806          89
 rpro_isp                                0.006033          13
 strkin                                  0.005774           1
 raccmu_                                 0.005204         479
 rcp                                     0.005030          89
 fftbrc_mpi                              0.004349        1213
 fornlr                                  0.002394           1
 w1_projall                              0.001766         344
 brgrid                                  0.001313           1
 posmap                                  0.000906           2
 truncate_high_frequency_w1              0.000671         614
 fordep                                  0.000576           1
 redis_pw_all                            0.000335          42
 crpa_reader                             0.000228           1
 redis_pw_over_bands                     0.000174          43
 set_rsgf_all                            0.000114          45
 set_dd_magatom                          0.000060           2
 proall                                  0.000050           1
 vectorpot                               0.000026           1
 rotate_active_occupied_orbital          0.000019           1
 shift_bands_between_low_high            0.000010           1
  summed up times    1975.96399402618

 Accumulative profile

 total_time                           1975.963994           1
 elmin_all                            1844.384942           1
 set_kineden                           799.901403          62
 fft3d_mpi                             511.985863       35025
 fftbas_plan_mpi                       510.734439       35025
 fftbas_mpi                            492.389930       33812
 edwav                                 452.587677          42
 kinhamil_tau                          394.636162        3476
 fftwav_mpi                            328.240869       19341
 dfftw_execute                         311.927706      105075
 m_sumb_d                              308.606388       12906
 eccp_tau                              281.428554        2403
 set_dd_paw                            225.580551          45
 fftext_mpi                            204.191185       14471
 eddav                                 128.564943           5
 map_forward                           112.907592       40096
 set_charge                            108.882429          43
 potlok_metagga                         99.143464          44
 eddiag                                 83.050947          22
 hamilt_local_tau                       68.928312         594
 map_backward                           65.124442       29954
 force_and_stress                       64.705042           1
 map_scatter                            58.413178       35262
 hamiltmu_tau                           57.918640         479
 map_gather                             51.629412       35262
 stretau                                47.540853           1
 m_alltoallv_z                          41.801193       35262
 lincom                                 25.795318         133
 soft_charge                            20.619078          43
 orthch                                 19.991732          43
 newband                                18.476786         484
 fftbrc_mpi                             18.469592        1213
 orth1                                  15.475616        3192
 m_alltoall_d                           13.506998       23063
 redis_pw                                9.819155        3742
 rpro_isp                                7.042040          13
 strnlr                                  5.782821           1
 m_bcast_z                               5.260181        1370
 ggemm                                   5.175321         614
 redis_proj                              4.732478        3825
 choleski                                4.326024          43
 potlok                                  4.048052          44
 lapack                                  3.780762         479
 rpro1                                   3.264821         911
 vhamil                                  2.485505        1073
 augmentation_charge                     2.426802          43
 raccmu_                                 2.424265         479
 racc0mu                                 2.397060         479
 racc0                                   2.376756         567
 setdij_                                 2.150897          71
 crrexp_mul_work_add                     2.096374      211292
 pw_charge                               2.073732         989
 potxc_metagga                           1.961688           1
 fornlr                                  1.943625           1
 crrexp_mul_wave                         1.678407      254924
 redis_pw_over_bands                     1.424724          43
 redis_pw_all                            1.424551          42
 m_bcast_d                               1.300773        1095
 w1_projall                              1.241360         344
 rspher_all                              1.118011          14
 rpromu                                  1.040241          91
 gemm                                    0.976848       96758
 w1_dscal                                0.913291         567
 phaser                                  0.805234          39
 proall                                  0.606033           1
 fortau                                  0.558397           1
 forloc                                  0.554144           1
 forhar                                  0.554039           1
 fft_gq                                  0.529303          43
 rpromu_gemm                             0.371615       18382
 stufak                                  0.328619           1
 depsum                                  0.298175          43
 fordep                                  0.169400           1
 w1_copy                                 0.160700        1437
 overl                                   0.120621        1476
 densta                                  0.114508          54
 pothar                                  0.085106          44
 fewald                                  0.076069          89
 rsp                                     0.058000          89
 setup_precond                           0.056612         135
 inisym                                  0.051964           1
 apply_precond                           0.050826         344
 overl1                                  0.022001         479
 strehar                                 0.019687           1
 strelo                                  0.011189           1
 strkin                                  0.006023           1
 rcp                                     0.005030          89
 brgrid                                  0.001313           1
 posmap                                  0.000906           2
 truncate_high_frequency_w1              0.000671         614
 crpa_reader                             0.000228           1
 set_rsgf_all                            0.000114          45
 set_dd_magatom                          0.000060           2
 vectorpot                               0.000026           1
 rotate_active_occupied_orbital          0.000019           1
 shift_bands_between_low_high            0.000010           1

Profiling took   0.861392  0.376025  0.007599  0.006384 seconds
Profiling took   1.113894 seconds