 vasp.6.3.2 27Jun22 (build Jan 05 2024 11:34:19) complex

 executed on           IFC15_impi date 2024.01.08  21:51:11

 INCAR:
   SYSTEM = MgO-rocksalt
   ISMEAR = 0
   SIGMA = 0.05
   EDIFF = 1E-6
   ALGO = ALL
   ISTART = 0
   IBRION = -1
   NSW = 0
   ISYM = 2
   DIPOL = 0.5 0.5 0.5
   IDIPOL = 3
   LDIPOL = .TRUE.
   METAGGA = M06L
   ENCUT = 520
   PREC = Accurate
   LASPH = .TRUE.
   LREAL = Auto
   ISPIN = 1
   NELM = 2000
   NELMIN = 8
   NCORE = 8
   LWAVE = .FALSE.
   LCHARG = .FALSE.

 POTCAR:    PAW_PBE Au 04Oct2007
 POTCAR:    PAW_PBE Mg_pv 13Apr2007
 POTCAR:    PAW_PBE O 08Apr2002
 POTCAR:    PAW_PBE Au 04Oct2007
   VRHFIN =Au: s1d10

   TITEL  = PAW_PBE Au 04Oct2007
   POMASS =  196.966; ZVAL   =   11.000    mass and valenz
   ENMAX  =  229.943; ENMIN  =  172.457 eV

   TITEL  = PAW_PBE Mg_pv 13Apr2007
   POMASS =   24.305; ZVAL   =    8.000    mass and valenz
   ENMAX  =  403.929; ENMIN  =  302.947 eV

   TITEL  = PAW_PBE O 08Apr2002
   POMASS =   16.000; ZVAL   =    6.000    mass and valenz
   ENMAX  =  400.000; ENMIN  =  300.000 eV

 Optimization of the real space projectors (new method)

 maximal supplied QI-value         = 15.12
 optimisation between [QCUT,QGAM] = [ 11.64, 23.28] = [ 37.95,151.78] Ry
 Optimized for a Real-space Cutoff    1.49 Angstroem

   l    n(q)    QCUT    max X(q) W(low)/X(q) W(high)/X(q)  e(spline)
   2      9    11.641    60.898    0.24E-03    0.10E-03    0.19E-06
   2      9    11.641    58.894    0.25E-03    0.10E-03    0.19E-06
   0     10    11.641   109.617    0.73E-04    0.33E-04    0.11E-06
   0     10    11.641    75.026    0.71E-04    0.32E-04    0.11E-06
   1     10    11.641    16.344    0.27E-04    0.97E-04    0.16E-06
   1     10    11.641    10.160    0.23E-04    0.77E-04    0.13E-06
 Optimization of the real space projectors (new method)

[...]

   l    n(q)    QCUT    max X(q) W(low)/X(q) W(high)/X(q)  e(spline)
   1      8    11.527     2.974    0.44E-04    0.56E-04    0.12E-06
   1      8    11.527     4.279    0.12E-03    0.12E-03    0.26E-06
   0      9    11.527    16.381    0.46E-04    0.64E-04    0.78E-07
   0      9    11.527     5.611    0.26E-04    0.43E-04    0.55E-07
   2      8    11.527     4.652    0.22E-03    0.72E-04    0.47E-07
 Optimization of the real space projectors (new method)

 maximal supplied QI-value         = 24.76
 optimisation between [QCUT,QGAM] = [ 11.64, 23.27] = [ 37.91,151.63] Ry
 Optimized for a Real-space Cutoff    1.14 Angstroem

   l    n(q)    QCUT    max X(q) W(low)/X(q) W(high)/X(q)  e(spline)
   0      8    11.635    20.381    0.10E-03    0.33E-03    0.24E-06
   0      8    11.635    15.268    0.11E-03    0.35E-03    0.26E-06
   1      7    11.635     5.964    0.24E-03    0.31E-03    0.30E-06
   1      7    11.635     5.382    0.22E-03    0.25E-03    0.26E-06
  PAW_PBE Au 04Oct2007                  :
  PAW_PBE Mg_pv 13Apr2007               :
  PAW_PBE O 08Apr2002                   :

 POSCAR: Au Mg  O
  positions in direct lattice

 METAGGA = M06L     LMAXTAU =  6    LMIXTAU =  F

 VTST: version 4.1, (05/19/21)

 CHAIN: initializing optimizer

 OPT: Using VASP Dynamics algorithm
 CHAIN: Read ICHAIN            0

 POSCAR: Au Mg  O
  positions in direct lattice

 ion  position               nearest neighbor table
   1  0.661  0.500  0.614-   2 2.57 172 2.59  73 2.77
   2  0.539  0.500  0.614-   1 2.57 152 2.59  73 2.77
   3  0.000  0.000  0.407- 105 2.11 106 2.11 121 2.11 186 2.11 103 2.11
   4  0.100  0.100  0.407- 105 2.11 106 2.11 110 2.11 125 2.11 104 2.11
   5  0.000  0.100  0.503- 103 2.11 104 2.11 107 2.11 184 2.11 105 2.11
   6  0.100  0.000  0.503- 103 2.11 104 2.11 120 2.11 123 2.11 106 2.11
   7  0.000  0.200  0.407- 109 2.11 105 2.11 110 2.11 190 2.11 107 2.11
   8  0.100  0.300  0.407- 110 2.11 109 2.11 114 2.11 129 2.11 108 2.11
   9  0.000  0.300  0.503- 107 2.11 108 2.11 111 2.11 188 2.11 109 2.11
  10  0.100  0.200  0.503- 108 2.11 107 2.11 104 2.11 127 2.11 110 2.11
  11  0.000  0.400  0.407- 109 2.11 113 2.11 114 2.11 194 2.11 111 2.11
  12  0.100  0.500  0.407- 113 2.11 114 2.11 118 2.11 133 2.11 112 2.11
  13  0.000  0.500  0.503- 111 2.11 112 2.11 115 2.11 192 2.11 113 2.11
  14  0.100  0.400  0.503- 108 2.11 111 2.11 112 2.11 131 2.11 114 2.11
  15  0.000  0.600  0.407- 113 2.11 117 2.11 118 2.11 198 2.11 115 2.11
  16  0.100  0.700  0.407- 122 2.11 118 2.11 117 2.11 137 2.11 116 2.11
  17  0.000  0.700  0.503- 119 2.11 116 2.11 115 2.11 196 2.11 117 2.11
  18  0.100  0.600  0.503- 112 2.11 115 2.11 116 2.11 135 2.11 118 2.11
  19  0.000  0.800  0.407- 117 2.11 121 2.11 122 2.11 202 2.11 119 2.11
  20  0.100  0.900  0.407- 106 2.11 121 2.11 122 2.11 141 2.11 120 2.11
  21  0.000  0.900  0.503- 103 2.11 119 2.11 120 2.11 200 2.11 121 2.11
  22  0.100  0.800  0.503- 116 2.11 119 2.11 120 2.11 139 2.11 122 2.11
  23  0.200  0.000  0.407- 126 2.11 125 2.11 106 2.11 141 2.11 123 2.11
  24  0.300  0.100  0.407- 125 2.11 126 2.11 130 2.11 145 2.11 124 2.11
  25  0.200  0.100  0.503- 124 2.11 123 2.11 104 2.11 127 2.11 125 2.11
  26  0.300  0.000  0.503- 123 2.11 124 2.11 140 2.11 143 2.11 126 2.11
  27  0.200  0.200  0.407- 129 2.11 130 2.11 110 2.11 125 2.11 127 2.11
  28  0.300  0.300  0.407- 129 2.11 130 2.11 134 2.11 149 2.11 128 2.11
  29  0.200  0.300  0.503- 127 2.11 128 2.11 108 2.11 131 2.11 129 2.11
  30  0.300  0.200  0.503- 127 2.11 128 2.11 124 2.11 147 2.11 130 2.11
  31  0.200  0.400  0.407- 134 2.11 129 2.11 133 2.11 114 2.11 131 2.11
  32  0.300  0.500  0.407- 133 2.11 134 2.11 138 2.11 153 2.11 132 2.11
  33  0.200  0.500  0.503- 132 2.11 131 2.11 112 2.11 135 2.11 133 2.11
  34  0.300  0.400  0.503- 131 2.11 128 2.11 132 2.11 151 2.11 134 2.11
  35  0.200  0.600  0.407- 138 2.11 133 2.11 137 2.11 118 2.11 135 2.11
  36  0.300  0.700  0.407- 137 2.11 142 2.11 138 2.11 157 2.11 136 2.11
  37  0.200  0.700  0.503- 136 2.11 139 2.11 116 2.11 135 2.11 137 2.11
  38  0.300  0.600  0.503- 135 2.11 132 2.11 136 2.11 155 2.11 138 2.11
  39  0.200  0.800  0.407- 137 2.11 142 2.11 141 2.11 122 2.11 139 2.11
  40  0.300  0.900  0.407- 141 2.11 126 2.11 142 2.11 161 2.11 140 2.11
  41  0.200  0.900  0.503- 140 2.11 123 2.11 139 2.11 120 2.11 141 2.11
  42  0.300  0.800  0.503- 136 2.11 139 2.11 140 2.11 159 2.11 142 2.11
  43  0.400  0.000  0.407- 126 2.11 145 2.11 146 2.11 161 2.11 143 2.11
  44  0.500  0.100  0.407- 145 2.11 146 2.11 150 2.11 165 2.11 144 2.11
  45  0.400  0.100  0.503- 124 2.11 143 2.11 144 2.11 147 2.11 145 2.11
  46  0.500  0.000  0.503- 143 2.11 144 2.11 160 2.11 163 2.11 146 2.11
  47  0.400  0.200  0.407- 149 2.11 145 2.11 130 2.11 150 2.11 147 2.11
  48  0.500  0.300  0.407- 150 2.11 149 2.11 154 2.11 169 2.11 148 2.11
  49  0.400  0.300  0.503- 147 2.11 128 2.11 148 2.11 151 2.11 149 2.11
  50  0.500  0.200  0.503- 148 2.11 147 2.11 144 2.11 167 2.11 150 2.11
  51  0.400  0.400  0.407- 134 2.11 149 2.11 153 2.11 154 2.11 151 2.11
  52  0.500  0.500  0.407- 153 2.11 154 2.11 158 2.11 173 2.11 152 2.11
  53  0.400  0.500  0.503- 132 2.11 151 2.11 152 2.11 155 2.11 153 2.11
  54  0.500  0.400  0.503- 148 2.11 151 2.11 152 2.11 171 2.11 154 2.11
  55  0.400  0.600  0.407- 138 2.11 153 2.11 157 2.11 158 2.11 155 2.11
  56  0.500  0.700  0.407- 162 2.11 158 2.11 157 2.11 177 2.11 156 2.11
  57  0.400  0.700  0.503- 159 2.11 155 2.11 156 2.11 136 2.11 157 2.11
  58  0.500  0.600  0.503- 152 2.11 155 2.11 156 2.11 175 2.11 158 2.11
  59  0.400  0.800  0.407- 157 2.11 142 2.11 161 2.11 162 2.11 159 2.11
  60  0.500  0.900  0.407- 146 2.11 161 2.11 162 2.11 181 2.11 160 2.11
[...]
 188  0.900  0.300  0.503-  90 2.11  89 2.11   9 2.11  94 2.11  88 2.11
 189  0.800  0.300  0.407-  68 2.11  87 2.11  88 2.11  91 2.11  89 2.11
 190  0.900  0.200  0.407-  88 2.11  84 2.11  87 2.11   7 2.11  90 2.11
 191  0.800  0.400  0.503-  74 2.11  89 2.11  93 2.11  94 2.11  91 2.11
 192  0.900  0.500  0.503-  13 2.11  93 2.11  94 2.11  98 2.11  92 2.11
 193  0.800  0.500  0.407-  72 2.11  91 2.11  92 2.11  95 2.11  93 2.11
 194  0.900  0.400  0.407-  11 2.11  88 2.11  91 2.11  92 2.11  94 2.11
 195  0.800  0.600  0.503-  78 2.11  93 2.11  97 2.11  98 2.11  95 2.11
 196  0.900  0.700  0.503- 102 2.11  97 2.11  98 2.11  17 2.11  96 2.11
 197  0.800  0.700  0.407-  76 2.11  99 2.11  96 2.11  95 2.11  97 2.11
 198  0.900  0.600  0.407-  15 2.11  92 2.11  95 2.11  96 2.11  98 2.11
 199  0.800  0.800  0.503-  82 2.11  97 2.11 101 2.11 102 2.11  99 2.11
 200  0.900  0.900  0.503-  21 2.11  86 2.11 101 2.11 102 2.11 100 2.11
 201  0.800  0.900  0.407-  80 2.11  83 2.11  99 2.11 100 2.11 101 2.11
 202  0.900  0.800  0.407-  96 2.11  19 2.11  99 2.11 100 2.11 102 2.11

  LATTYP: Found a simple tetragonal cell.
 ALAT       =    21.1388521970
 C/A-ratio  =     1.0461251639

  Lattice vectors:

 A1 = (  21.1388521970,   0.0000000000,   0.0000000000)
 A2 = (   0.0000000000,  21.1388521970,   0.0000000000)
 A3 = (   0.0000000000,   0.0000000000,  22.1138852197)

Analysis of symmetry for initial positions (statically):
 Subroutine PRICEL returns:
 Original cell was already a primitive cell.

 Routine SETGRP: Setting up the symmetry group for a
 simple tetragonal supercell.

 Subroutine GETGRP returns: Found  4 space group operations
 (whereof  2 operations were pure point group operations)
 out of a pool of 16 trial point group operations.

The static configuration has the point symmetry C_1h.
 The point group associated with its full space group is C_2v.

Analysis of symmetry for dynamics (positions and initial velocities):
 Subroutine PRICEL returns:
 Original cell was already a primitive cell.

 Routine SETGRP: Setting up the symmetry group for a
 simple tetragonal supercell.

 Subroutine GETGRP returns: Found  4 space group operations
 (whereof  2 operations were pure point group operations)
 out of a pool of 16 trial point group operations.

The dynamic configuration has the point symmetry C_1h.
 The point group associated with its full space group is C_2v.

 Subroutine INISYM returns: Found  4 space group operations
 (whereof  2 operations are pure point group operations),
 and found     1 'primitive' translations

                                     Primitive cell

  volume of cell :    9881.6133

  direct lattice vectors                    reciprocal lattice vectors
    21.138852197  0.000000000  0.000000000     0.047306258  0.000000000  0.000000000
     0.000000000 21.138852197  0.000000000     0.000000000  0.047306258  0.000000000
     0.000000000  0.000000000 22.113885220     0.000000000  0.000000000  0.045220457

  length of vectors
    21.138852197 21.138852197 22.113885220     0.047306258  0.047306258  0.045220457

  position of ions in fractional coordinates (direct lattice)
     0.660731451  0.500000000  0.613578390
     0.539268477  0.500000000  0.613578390
     0.000000000  0.000000000  0.406984115
     0.100000000  0.100000000  0.406984115
     0.000000000  0.100000000  0.502574971
     0.100000000  0.000000000  0.502574971
     0.000000000  0.200000000  0.406984115
     0.100000000  0.300000000  0.406984115
     0.000000000  0.300000000  0.502574971
     0.100000000  0.200000000  0.502574971
     0.000000000  0.400000000  0.406984115
[...]
  501                  map_gather                            0.006927                  6   8
  502                  m_alltoallv_z                         0.032331                  6   8
  503                  map_scatter                           0.003777                  6   8
  504          m_sumb_d                              0.000687                          3   4
  505        fortau                                0.560947                            1   3
  506          m_sumb_d                              0.006641                          1   4
  507        forhar                                0.550031                            1   3
  508          m_sumb_d                              0.002480                          1   4
  509        strehar                               0.019476                            1   3
  510          m_sumb_d                              0.006889                          1   4
  511        m_bcast_d                             0.000608                            2   3
  512      potlok                                0.088311                              1   2
  513        fft3d_mpi                             0.059560                            5   3
  514          fftbrc_mpi                            0.055430                          5   4
  515            fftbas_plan_mpi                       0.055414                        5   5
  516              dfftw_execute                         0.017767                     15   6
  517              map_backward                          0.012524                      4   6
  518                map_gather                            0.002271                    2   7
  519                m_alltoallv_z                         0.008795                    2   7
  520                map_scatter                           0.001411                    2   7
  521              map_forward                           0.020963                      6   6
  522                map_gather                            0.001398                    4   7
  523                m_alltoallv_z                         0.013024                    4   7
  524                map_scatter                           0.006467                    4   7
  525        m_sumb_d                              0.000480                            2   3
  526        fewald                                0.001300                            2   3
  527          rsp                                   0.001193                          2   4
  528          rcp                                   0.000094                          2   4
  529        pothar                                0.002130                            1   3
  530          m_sumb_d                              0.000645                          1   4
  531        m_bcast_d                             0.007234                            1   3
  532      potlok_metagga                        2.072189                              1   2
  533        fft3d_mpi                             0.248248                           17   3
  534          fftbrc_mpi                            0.236090                         17   4
  535            fftbas_plan_mpi                       0.236035                       17   5
  536              dfftw_execute                         0.053971                     51   6
  537              map_forward                           0.116809                     22   6
  538                map_gather                            0.004993                   13   7
  539                m_alltoallv_z                         0.092372                   13   7
  540                map_scatter                           0.019208                   13   7
  541              map_backward                          0.052626                     12   6
  542                map_gather                            0.006606                    6   7
  543                m_alltoallv_z                         0.042126                    6   7
  544                map_scatter                           0.003777                    6   7
  545        m_sumb_d                              0.000454                            3   3
  546        m_bcast_d                             0.015149                            2   3
  547      set_dd_magatom                        0.000000                              1   2
  548      set_dd_paw                            5.004039                              1   2
  549        set_rsgf_all                          0.000002                            1   3
  550        m_sumb_d                              5.003793                            7   3

 Flat profile

 set_kineden                           611.058908          62
 dfftw_execute                         311.948696      105102
 m_sumb_d                              311.134780       12915
 edwav                                 105.930125          42
 potlok_metagga                         89.296486          44
 set_charge                             75.235981          43
 map_scatter                            58.465383       35271
 total_time                             55.763050           1
 map_gather                             51.745048       35271
 m_alltoallv_z                          39.628096       35271
 fftwav_mpi                             34.203022       19346
 lincom                                 25.804027         133
 map_forward                            25.655863       40106
 kinhamil_tau                           21.545484        3477
 fftbas_plan_mpi                        20.650437       35034
 eddav                                  17.498819           5
 m_alltoall_d                           16.280097       23070
 orth1                                  15.495130        3195
 eccp_tau                                8.429231        2403
 m_bcast_z                               5.502321        1371
 fftext_mpi                              5.289900       14475
 ggemm                                   5.194500         615
 choleski                                4.321821          43
 lapack                                  3.797692         480
 eddiag                                  2.735833          22
 vhamil                                  2.489059        1074
 crrexp_mul_work_add                     2.092098      211494
 pw_charge                               2.088976         989
 augmentation_charge                     1.866417          43
 potxc_metagga                           1.819764           1
 setdij_                                 1.737726          71
 rpro1                                   1.721631         912
 crrexp_mul_wave                         1.677007      255126
 m_bcast_d                               1.252734        1097
 racc0                                   1.136000         567
 fft3d_mpi                               1.125708       35034
 rspher_all                              1.120151          14
 gemm                                    0.964285       96960
 redis_pw                                0.928048        3745
 w1_dscal                                0.898828         567
 phaser                                  0.804502          39
 potlok                                  0.766794          44
 fortau                                  0.554306           1
 forhar                                  0.547551           1
 forloc                                  0.546703           1
 elmin_all                               0.448702           1
 rpromu_gemm                             0.371228       18382
 racc0mu                                 0.368350         480
 stufak                                  0.333611           1
 map_backward                            0.284012       29962
 stretau                                 0.242066           1
 w1_copy                                 0.156341        1440
 rpromu                                  0.152683          91
 orthch                                  0.136307          43
 soft_charge                             0.123364          43
 fftbas_mpi                              0.119496       33821
 redis_proj                              0.119403        3829
 overl                                   0.118184        1478
 pothar                                  0.065270          44
 rsp                                     0.058233          89
 inisym                                  0.050974           1
 apply_precond                           0.050138         345
 setup_precond                           0.046879         135
 fft_gq                                  0.032342          43
 depsum                                  0.025292          43
 overl1                                  0.022400         480
 set_dd_paw                              0.020486          45
 force_and_stress                        0.016162           1
 densta                                  0.012973          54
 strehar                                 0.012587           1
 hamiltmu_tau                            0.011700         480
 strelo                                  0.010819           1
 hamilt_local_tau                        0.007546         594
 newband                                 0.007431         485
 fewald                                  0.006866          89
 strnlr                                  0.006716           1
 rpro_isp                                0.006111          13
 raccmu_                                 0.005706         480
 strkin                                  0.005694           1
 rcp                                     0.004997          89
 fftbrc_mpi                              0.004014        1213
 fornlr                                  0.002255           1
 w1_projall                              0.001930         345
 brgrid                                  0.001364           1
 posmap                                  0.000730           2
 truncate_high_frequency_w1              0.000669         615
 fordep                                  0.000527           1
 redis_pw_all                            0.000328          42
 crpa_reader                             0.000233           1
 redis_pw_over_bands                     0.000168          43
 set_rsgf_all                            0.000096          45
 proall                                  0.000053           1
 set_dd_magatom                          0.000051           2
 vectorpot                               0.000030           1
 rotate_active_occupied_orbital          0.000019           1
 shift_bands_between_low_high            0.000011           1
  summed up times    1952.22256517410

 Accumulative profile

 total_time                           1952.222565           1
 elmin_all                            1817.731091           1
 set_kineden                           763.750320          62
 fft3d_mpi                             509.626753       35034
 fftbas_plan_mpi                       508.377535       35034
 fftbas_mpi                            491.530809       33821
 edwav                                 462.461348          42
 kinhamil_tau                          393.720224        3477
 fftwav_mpi                            327.307060       19346
 dfftw_execute                         311.948696      105102
 m_sumb_d                              311.134780       12915
 eccp_tau                              280.565117        2403
 set_dd_paw                            225.494680          45
 fftext_mpi                            203.857480       14475
 eddav                                 129.147889           5
 map_forward                           110.969926       40106
 set_charge                            106.695886          43
 potlok_metagga                         99.938304          44
 eddiag                                 83.218714          22
 hamilt_local_tau                       68.762990         594
 map_backward                           64.808476       29962
 force_and_stress                       64.434402           1
 map_scatter                            58.465383       35271
 hamiltmu_tau                           57.839744         480
 map_gather                             51.745048       35271
 stretau                                47.246176           1
 m_alltoallv_z                          39.628096       35271
 lincom                                 25.804027         133
 soft_charge                            20.900003          43
 orthch                                 20.460646          43
 newband                                18.392673         485
 fftbrc_mpi                             16.970237        1213
 m_alltoall_d                           16.280097       23070
 orth1                                  15.495130        3195
 redis_pw                               11.333077        3745
 rpro_isp                                7.038632          13
 redis_proj                              5.994470        3829
 strnlr                                  5.819150           1
 m_bcast_z                               5.502321        1371
 ggemm                                   5.194500         615
 choleski                                4.321821          43
 potlok                                  4.051457          44
 lapack                                  3.797692         480
 rpro1                                   3.187377         912
 vhamil                                  2.489059        1074
 raccmu_                                 2.409444         480
 racc0mu                                 2.381338         480
 racc0                                   2.379732         567
 augmentation_charge                     2.379581          43
 setdij_                                 2.137861          71
 crrexp_mul_work_add                     2.092098      211494
 pw_charge                               2.088976         989
 potxc_metagga                           1.977015           1
 fornlr                                  1.955866           1
 crrexp_mul_wave                         1.677007      255126
 redis_pw_over_bands                     1.627919          43
 redis_pw_all                            1.627751          42
 m_bcast_d                               1.252734        1097
 w1_projall                              1.210685         345
 rspher_all                              1.120151          14
 rpromu                                  1.045216          91
 gemm                                    0.964285       96960
 w1_dscal                                0.898828         567
 phaser                                  0.804502          39
 proall                                  0.610472           1
 fortau                                  0.560947           1
 forloc                                  0.550134           1
 forhar                                  0.550031           1
 fft_gq                                  0.541645          43
 rpromu_gemm                             0.371228       18382
 stufak                                  0.333611           1
 depsum                                  0.324508          43
 fordep                                  0.166190           1
 w1_copy                                 0.156341        1440
 densta                                  0.127460          54
 overl                                   0.118184        1478
 pothar                                  0.094262          44
 fewald                                  0.076320          89
 rsp                                     0.058233          89
 setup_precond                           0.055661         135
 inisym                                  0.051704           1
 apply_precond                           0.050138         345
 overl1                                  0.022400         480
 strehar                                 0.019476           1
 strelo                                  0.011206           1
 strkin                                  0.006272           1
 rcp                                     0.004997          89
 brgrid                                  0.001364           1
 posmap                                  0.000730           2
 truncate_high_frequency_w1              0.000669         615
 crpa_reader                             0.000233           1
 set_rsgf_all                            0.000096          45
 set_dd_magatom                          0.000051           2
 vectorpot                               0.000030           1
 rotate_active_occupied_orbital          0.000019           1
 shift_bands_between_low_high            0.000011           1

Profiling took   0.855843  0.373716  0.007355  0.006228 seconds
Profiling took   1.105989 seconds