 vasp.6.3.2 27Jun22 (build Jan 05 2024 11:34:19) complex

 executed on           IFC15_impi date 2024.01.08  15:15:04

 INCAR:
   SYSTEM = MgO-rocksalt
   ISMEAR = 0
   SIGMA = 0.05
   EDIFF = 1E-6
   ALGO = ALL
   ISTART = 0
   IBRION = -1
   NSW = 0
   ISYM = 2
   DIPOL = 0.5 0.5 0.5
   IDIPOL = 3
   LDIPOL = .TRUE.
   METAGGA = M06L
   ENCUT = 520
   PREC = Accurate
   LASPH = .TRUE.
   LREAL = Auto
   ISPIN = 1
   NELM = 2000
   NELMIN = 8
   NCORE = 8
   LWAVE = .FALSE.
   LCHARG = .FALSE.

 POTCAR:    PAW_PBE Ag 02Apr2005
 POTCAR:    PAW_PBE Mg_pv 13Apr2007
 POTCAR:    PAW_PBE O 08Apr2002
 POTCAR:    PAW_PBE Ag 02Apr2005
   VRHFIN =Ag : s1 d10

   TITEL  = PAW_PBE Ag 02Apr2005
   POMASS =  107.868; ZVAL   =   11.000    mass and valenz
   ENMAX  =  249.844; ENMIN  =  187.383 eV

   TITEL  = PAW_PBE Mg_pv 13Apr2007
   POMASS =   24.305; ZVAL   =    8.000    mass and valenz
   ENMAX  =  403.929; ENMIN  =  302.947 eV

   TITEL  = PAW_PBE O 08Apr2002
   POMASS =   16.000; ZVAL   =    6.000    mass and valenz
   ENMAX  =  400.000; ENMIN  =  300.000 eV

 Optimization of the real space projectors (new method)

 maximal supplied QI-value         = 15.12
 optimisation between [QCUT,QGAM] = [ 11.64, 23.28] = [ 37.95,151.78] Ry
 Optimized for a Real-space Cutoff    1.45 Angstroem

   l    n(q)    QCUT    max X(q) W(low)/X(q) W(high)/X(q)  e(spline)
   2      9    11.641    53.897    0.22E-03    0.42E-04    0.28E-06
   2      9    11.641    52.416    0.23E-03    0.44E-04    0.29E-06
   0     10    11.641   122.045    0.51E-04    0.25E-04    0.16E-06
   0     10    11.641    73.629    0.49E-04    0.24E-04    0.16E-06
   1     10    11.641    15.255    0.99E-04    0.55E-04    0.11E-06
   1     10    11.641     9.562    0.81E-04    0.47E-04    0.95E-07
 Optimization of the real space projectors (new method)

[...]

   l    n(q)    QCUT    max X(q) W(low)/X(q) W(high)/X(q)  e(spline)
   1      8    11.527     2.974    0.44E-04    0.56E-04    0.12E-06
   1      8    11.527     4.279    0.12E-03    0.12E-03    0.26E-06
   0      9    11.527    16.381    0.46E-04    0.64E-04    0.78E-07
   0      9    11.527     5.611    0.26E-04    0.43E-04    0.55E-07
   2      8    11.527     4.652    0.22E-03    0.72E-04    0.47E-07
 Optimization of the real space projectors (new method)

 maximal supplied QI-value         = 24.76
 optimisation between [QCUT,QGAM] = [ 11.64, 23.27] = [ 37.91,151.63] Ry
 Optimized for a Real-space Cutoff    1.14 Angstroem

   l    n(q)    QCUT    max X(q) W(low)/X(q) W(high)/X(q)  e(spline)
   0      8    11.635    20.381    0.10E-03    0.33E-03    0.24E-06
   0      8    11.635    15.268    0.11E-03    0.35E-03    0.26E-06
   1      7    11.635     5.964    0.24E-03    0.31E-03    0.30E-06
   1      7    11.635     5.382    0.22E-03    0.25E-03    0.26E-06
  PAW_PBE Ag 02Apr2005                  :
  PAW_PBE Mg_pv 13Apr2007               :
  PAW_PBE O 08Apr2002                   :

 POSCAR: Ag Mg  O
  positions in direct lattice

 METAGGA = M06L     LMAXTAU =  6    LMIXTAU =  F

 VTST: version 4.1, (05/19/21)

 CHAIN: initializing optimizer

 OPT: Using VASP Dynamics algorithm
 CHAIN: Read ICHAIN            0

 POSCAR: Ag Mg  O
  positions in direct lattice

 ion  position               nearest neighbor table
   1  0.450  0.450  0.726-   2 2.56
   2  0.450  0.450  0.610-   1 2.56  53 2.81  54 2.81
   3  0.000  0.000  0.407- 105 2.11 106 2.11 121 2.11 186 2.11 103 2.11
   4  0.100  0.100  0.407- 105 2.11 106 2.11 110 2.11 125 2.11 104 2.11
   5  0.000  0.100  0.503- 103 2.11 104 2.11 107 2.11 184 2.11 105 2.11
   6  0.100  0.000  0.503- 103 2.11 104 2.11 120 2.11 123 2.11 106 2.11
   7  0.000  0.200  0.407- 109 2.11 105 2.11 110 2.11 190 2.11 107 2.11
   8  0.100  0.300  0.407- 110 2.11 109 2.11 114 2.11 129 2.11 108 2.11
   9  0.000  0.300  0.503- 107 2.11 108 2.11 111 2.11 188 2.11 109 2.11
  10  0.100  0.200  0.503- 108 2.11 107 2.11 104 2.11 127 2.11 110 2.11
  11  0.000  0.400  0.407- 109 2.11 113 2.11 114 2.11 194 2.11 111 2.11
  12  0.100  0.500  0.407- 113 2.11 114 2.11 118 2.11 133 2.11 112 2.11
  13  0.000  0.500  0.503- 111 2.11 112 2.11 115 2.11 192 2.11 113 2.11
  14  0.100  0.400  0.503- 108 2.11 111 2.11 112 2.11 131 2.11 114 2.11
  15  0.000  0.600  0.407- 113 2.11 117 2.11 118 2.11 198 2.11 115 2.11
  16  0.100  0.700  0.407- 122 2.11 118 2.11 117 2.11 137 2.11 116 2.11
  17  0.000  0.700  0.503- 119 2.11 116 2.11 115 2.11 196 2.11 117 2.11
  18  0.100  0.600  0.503- 112 2.11 115 2.11 116 2.11 135 2.11 118 2.11
  19  0.000  0.800  0.407- 117 2.11 121 2.11 122 2.11 202 2.11 119 2.11
  20  0.100  0.900  0.407- 106 2.11 121 2.11 122 2.11 141 2.11 120 2.11
  21  0.000  0.900  0.503- 103 2.11 119 2.11 120 2.11 200 2.11 121 2.11
  22  0.100  0.800  0.503- 116 2.11 119 2.11 120 2.11 139 2.11 122 2.11
  23  0.200  0.000  0.407- 126 2.11 125 2.11 106 2.11 141 2.11 123 2.11
  24  0.300  0.100  0.407- 125 2.11 126 2.11 130 2.11 145 2.11 124 2.11
  25  0.200  0.100  0.503- 124 2.11 123 2.11 104 2.11 127 2.11 125 2.11
  26  0.300  0.000  0.503- 123 2.11 124 2.11 140 2.11 143 2.11 126 2.11
  27  0.200  0.200  0.407- 129 2.11 130 2.11 110 2.11 125 2.11 127 2.11
  28  0.300  0.300  0.407- 129 2.11 130 2.11 134 2.11 149 2.11 128 2.11
  29  0.200  0.300  0.503- 127 2.11 128 2.11 108 2.11 131 2.11 129 2.11
  30  0.300  0.200  0.503- 127 2.11 128 2.11 124 2.11 147 2.11 130 2.11
  31  0.200  0.400  0.407- 134 2.11 129 2.11 133 2.11 114 2.11 131 2.11
  32  0.300  0.500  0.407- 133 2.11 134 2.11 138 2.11 153 2.11 132 2.11
  33  0.200  0.500  0.503- 132 2.11 131 2.11 112 2.11 135 2.11 133 2.11
  34  0.300  0.400  0.503- 131 2.11 128 2.11 132 2.11 151 2.11 134 2.11
  35  0.200  0.600  0.407- 138 2.11 133 2.11 137 2.11 118 2.11 135 2.11
  36  0.300  0.700  0.407- 137 2.11 142 2.11 138 2.11 157 2.11 136 2.11
  37  0.200  0.700  0.503- 136 2.11 139 2.11 116 2.11 135 2.11 137 2.11
  38  0.300  0.600  0.503- 135 2.11 132 2.11 136 2.11 155 2.11 138 2.11
  39  0.200  0.800  0.407- 137 2.11 142 2.11 141 2.11 122 2.11 139 2.11
  40  0.300  0.900  0.407- 141 2.11 126 2.11 142 2.11 161 2.11 140 2.11
  41  0.200  0.900  0.503- 140 2.11 123 2.11 139 2.11 120 2.11 141 2.11
  42  0.300  0.800  0.503- 136 2.11 139 2.11 140 2.11 159 2.11 142 2.11
  43  0.400  0.000  0.407- 126 2.11 145 2.11 146 2.11 161 2.11 143 2.11
  44  0.500  0.100  0.407- 145 2.11 146 2.11 150 2.11 165 2.11 144 2.11
  45  0.400  0.100  0.503- 124 2.11 143 2.11 144 2.11 147 2.11 145 2.11
  46  0.500  0.000  0.503- 143 2.11 144 2.11 160 2.11 163 2.11 146 2.11
  47  0.400  0.200  0.407- 149 2.11 145 2.11 130 2.11 150 2.11 147 2.11
  48  0.500  0.300  0.407- 150 2.11 149 2.11 154 2.11 169 2.11 148 2.11
  49  0.400  0.300  0.503- 147 2.11 128 2.11 148 2.11 151 2.11 149 2.11
  50  0.500  0.200  0.503- 148 2.11 147 2.11 144 2.11 167 2.11 150 2.11
  51  0.400  0.400  0.407- 134 2.11 149 2.11 153 2.11 154 2.11 151 2.11
  52  0.500  0.500  0.407- 153 2.11 154 2.11 158 2.11 173 2.11 152 2.11
  53  0.400  0.500  0.503- 132 2.11 151 2.11 152 2.11 155 2.11 153 2.11   2 2.81
  54  0.500  0.400  0.503- 148 2.11 151 2.11 152 2.11 171 2.11 154 2.11   2 2.81
  55  0.400  0.600  0.407- 138 2.11 153 2.11 157 2.11 158 2.11 155 2.11
  56  0.500  0.700  0.407- 162 2.11 158 2.11 157 2.11 177 2.11 156 2.11
  57  0.400  0.700  0.503- 159 2.11 155 2.11 156 2.11 136 2.11 157 2.11
  58  0.500  0.600  0.503- 152 2.11 155 2.11 156 2.11 175 2.11 158 2.11
  59  0.400  0.800  0.407- 157 2.11 142 2.11 161 2.11 162 2.11 159 2.11
  60  0.500  0.900  0.407- 146 2.11 161 2.11 162 2.11 181 2.11 160 2.11
[...]
 188  0.900  0.300  0.503-  90 2.11  89 2.11   9 2.11  94 2.11  88 2.11
 189  0.800  0.300  0.407-  68 2.11  87 2.11  88 2.11  91 2.11  89 2.11
 190  0.900  0.200  0.407-  88 2.11  84 2.11  87 2.11   7 2.11  90 2.11
 191  0.800  0.400  0.503-  74 2.11  89 2.11  93 2.11  94 2.11  91 2.11
 192  0.900  0.500  0.503-  13 2.11  93 2.11  94 2.11  98 2.11  92 2.11
 193  0.800  0.500  0.407-  72 2.11  91 2.11  92 2.11  95 2.11  93 2.11
 194  0.900  0.400  0.407-  11 2.11  88 2.11  91 2.11  92 2.11  94 2.11
 195  0.800  0.600  0.503-  78 2.11  93 2.11  97 2.11  98 2.11  95 2.11
 196  0.900  0.700  0.503- 102 2.11  97 2.11  98 2.11  17 2.11  96 2.11
 197  0.800  0.700  0.407-  76 2.11  99 2.11  96 2.11  95 2.11  97 2.11
 198  0.900  0.600  0.407-  15 2.11  92 2.11  95 2.11  96 2.11  98 2.11
 199  0.800  0.800  0.503-  82 2.11  97 2.11 101 2.11 102 2.11  99 2.11
 200  0.900  0.900  0.503-  21 2.11  86 2.11 101 2.11 102 2.11 100 2.11
 201  0.800  0.900  0.407-  80 2.11  83 2.11  99 2.11 100 2.11 101 2.11
 202  0.900  0.800  0.407-  96 2.11  19 2.11  99 2.11 100 2.11 102 2.11

  LATTYP: Found a simple tetragonal cell.
 ALAT       =    21.1388521970
 C/A-ratio  =     1.0461251639

  Lattice vectors:

 A1 = (  21.1388521970,   0.0000000000,   0.0000000000)
 A2 = (   0.0000000000,  21.1388521970,   0.0000000000)
 A3 = (   0.0000000000,   0.0000000000,  22.1138852197)

Analysis of symmetry for initial positions (statically):
 Subroutine PRICEL returns:
 Original cell was already a primitive cell.

 Routine SETGRP: Setting up the symmetry group for a
 simple tetragonal supercell.

 Subroutine GETGRP returns: Found  4 space group operations
 (whereof  2 operations were pure point group operations)
 out of a pool of 16 trial point group operations.

The static configuration has the point symmetry C_1h.
 The point group associated with its full space group is C_2v.

Analysis of symmetry for dynamics (positions and initial velocities):
 Subroutine PRICEL returns:
 Original cell was already a primitive cell.

 Routine SETGRP: Setting up the symmetry group for a
 simple tetragonal supercell.

 Subroutine GETGRP returns: Found  4 space group operations
 (whereof  2 operations were pure point group operations)
 out of a pool of 16 trial point group operations.

The dynamic configuration has the point symmetry C_1h.
 The point group associated with its full space group is C_2v.

 Subroutine INISYM returns: Found  4 space group operations
 (whereof  2 operations are pure point group operations),
 and found     1 'primitive' translations

                                     Primitive cell

  volume of cell :    9881.6133

  direct lattice vectors                    reciprocal lattice vectors
    21.138852197  0.000000000  0.000000000     0.047306258  0.000000000  0.000000000
     0.000000000 21.138852197  0.000000000     0.000000000  0.047306258  0.000000000
     0.000000000  0.000000000 22.113885220     0.000000000  0.000000000  0.045220457

  length of vectors
    21.138852197 21.138852197 22.113885220     0.047306258  0.047306258  0.045220457

  position of ions in fractional coordinates (direct lattice)
     0.449999988  0.450000018  0.725800575
     0.449999988  0.450000018  0.610040178
     0.000000000  0.000000000  0.406984115
     0.100000000  0.100000000  0.406984115
     0.000000000  0.100000000  0.502574971
     0.100000000  0.000000000  0.502574971
     0.000000000  0.200000000  0.406984115
     0.100000000  0.300000000  0.406984115
     0.000000000  0.300000000  0.502574971
     0.100000000  0.200000000  0.502574971
     0.000000000  0.400000000  0.406984115
[...]
  501                  map_gather                            0.006655                  6   8
  502                  m_alltoallv_z                         0.050240                  6   8
  503                  map_scatter                           0.004134                  6   8
  504          m_sumb_d                              0.000392                          3   4
  505        fortau                                0.565057                            1   3
  506          m_sumb_d                              0.000172                          1   4
  507        forhar                                0.565588                            1   3
  508          m_sumb_d                              0.003844                          1   4
  509        strehar                               0.012826                            1   3
  510          m_sumb_d                              0.000330                          1   4
  511        m_bcast_d                             0.000588                            2   3
  512      potlok                                0.086846                              1   2
  513        fft3d_mpi                             0.058989                            5   3
  514          fftbrc_mpi                            0.053992                          5   4
  515            fftbas_plan_mpi                       0.053977                        5   5
  516              dfftw_execute                         0.017929                     15   6
  517              map_backward                          0.012714                      4   6
  518                map_gather                            0.002222                    2   7
  519                m_alltoallv_z                         0.009188                    2   7
  520                map_scatter                           0.001256                    2   7
  521              map_forward                           0.019807                      6   6
  522                map_gather                            0.001218                    4   7
  523                m_alltoallv_z                         0.011961                    4   7
  524                map_scatter                           0.006552                    4   7
  525        m_sumb_d                              0.000347                            2   3
  526        fewald                                0.001306                            2   3
  527          rsp                                   0.001201                          2   4
  528          rcp                                   0.000091                          2   4
  529        pothar                                0.002442                            1   3
  530          m_sumb_d                              0.001047                          1   4
  531        m_bcast_d                             0.007052                            1   3
  532      potlok_metagga                        2.028048                              1   2
  533        fft3d_mpi                             0.229898                           17   3
  534          fftbrc_mpi                            0.217987                         17   4
  535            fftbas_plan_mpi                       0.217934                       17   5
  536              dfftw_execute                         0.053748                     51   6
  537              map_forward                           0.083336                     22   6
  538                map_gather                            0.005061                   13   7
  539                m_alltoallv_z                         0.059333                   13   7
  540                map_scatter                           0.018613                   13   7
  541              map_backward                          0.068598                     12   6
  542                map_gather                            0.006809                    6   7
  543                m_alltoallv_z                         0.057758                    6   7
  544                map_scatter                           0.003909                    6   7
  545        m_sumb_d                              0.001717                            3   3
  546        m_bcast_d                             0.013331                            2   3
  547      set_dd_magatom                        0.000000                              1   2
  548      set_dd_paw                            4.850370                              1   2
  549        set_rsgf_all                          0.000001                            1   3
  550        m_sumb_d                              4.850134                            7   3

 Flat profile

 set_kineden                           748.098136          70
 m_sumb_d                              366.671605       14584
 dfftw_execute                         360.881538      120912
 edwav                                 116.257852          50
 potlok_metagga                        102.857554          52
 set_charge                             89.376875          51
 map_scatter                            66.976115       40581
 total_time                             62.964841           1
 map_gather                             59.412014       40581
 m_alltoallv_z                          47.826767       40581
 fftwav_mpi                             39.316877       22132
 m_alltoall_d                           33.916252       26756
 lincom                                 30.504431         157
 map_forward                            29.738756       45918
 kinhamil_tau                           24.614227        4019
 fftbas_plan_mpi                        23.796659       40304
 orth1                                  17.347021        3525
 eddav                                  16.816857           5
 eccp_tau                               10.054467        2835
 fftext_mpi                              6.184970       16751
 m_bcast_z                               5.344644        1373
 ggemm                                   5.201643         617
 choleski                                5.114194          51
 lapack                                  3.809347         482
 vhamil                                  2.678035        1184
 eddiag                                  2.576941          26
 pw_charge                               2.507698        1173
 crrexp_mul_work_add                     2.317735      233714
 rpro1                                   2.036590        1022
 augmentation_charge                     1.859075          51
 crrexp_mul_wave                         1.823339      277346
 potxc_metagga                           1.793065           1
 setdij_                                 1.704121          79
 racc0                                   1.413816         675
 fft3d_mpi                               1.335122       40304
 m_bcast_d                               1.259624        1125
 rspher_all                              1.069311          14
 w1_dscal                                1.067846         675
 redis_pw                                1.058789        4203
 gemm                                    1.001149       97364
 phaser                                  0.885123          43
 potlok                                  0.877037          52
 fortau                                  0.564885           1
 forloc                                  0.563591           1
 forhar                                  0.561744           1
 elmin_all                               0.514274           1
 rpromu_gemm                             0.381873       18382
 racc0mu                                 0.366688         482
 map_backward                            0.352329       34690
 stufak                                  0.332208           1
 stretau                                 0.241446           1
 soft_charge                             0.165147          51
 w1_copy                                 0.161722        1446
 rpromu                                  0.152104          91
 redis_proj                              0.136493        4249
 fftbas_mpi                              0.136300       38883
 orthch                                  0.132910          51
 overl                                   0.131966        1606
 pothar                                  0.075872          52
 rsp                                     0.068376         105
 inisym                                  0.050981           1
 apply_precond                           0.049934         347
 setup_precond                           0.048542         135
 fft_gq                                  0.038676          51
 depsum                                  0.029826          51
 overl1                                  0.021962         482
 force_and_stress                        0.015825           1
 set_dd_paw                              0.015571          53
 densta                                  0.014521          62
 strehar                                 0.012496           1
 hamiltmu_tau                            0.011381         482
 strelo                                  0.010459           1
 hamilt_local_tau                        0.009221         702
 newband                                 0.007789         487
 fewald                                  0.007246         105
 rpro_isp                                0.006957          13
 strnlr                                  0.006892           1
 strkin                                  0.005602           1
 rcp                                     0.005504         105
 fftbrc_mpi                              0.005271        1421
 raccmu_                                 0.005196         482
 fornlr                                  0.002262           1
 w1_projall                              0.001978         347
 brgrid                                  0.001317           1
 posmap                                  0.000956           2
 truncate_high_frequency_w1              0.000665         617
 redis_pw_all                            0.000400          50
 fordep                                  0.000286           1
 redis_pw_over_bands                     0.000261          51
 crpa_reader                             0.000231           1
 set_rsgf_all                            0.000106          53
 set_dd_magatom                          0.000059           2
 proall                                  0.000055           1
 vectorpot                               0.000029           1
 rotate_active_occupied_orbital          0.000019           1
 shift_bands_between_low_high            0.000009           1
  summed up times    2307.77647304535

 Accumulative profile

 total_time                           2307.776473           1
 elmin_all                            2166.572824           1
 set_kineden                           923.094429          70
 fft3d_mpi                             590.460873       40304
 fftbas_plan_mpi                       588.984180       40304
 fftbas_mpi                            568.152466       38883
 edwav                                 554.820370          50
 kinhamil_tau                          456.850331        4019
 fftwav_mpi                            376.689474       22132
 m_sumb_d                              366.671605       14584
 dfftw_execute                         360.881538      120912
 eccp_tau                              332.509729        2835
 set_dd_paw                            265.135532          53
 fftext_mpi                            237.127679       16751
 eddav                                 132.574659           5
 map_forward                           128.572042       45918
 set_charge                            126.377426          51
 potlok_metagga                        115.373727          52
 eddiag                                101.437209          26
 hamilt_local_tau                       81.653417         702
 map_backward                           75.733941       34690
 map_scatter                            66.976115       40581
 force_and_stress                       64.316633           1
 map_gather                             59.412014       40581
 hamiltmu_tau                           58.034951         482
 m_alltoallv_z                          47.826767       40581
 stretau                                47.396126           1
 m_alltoall_d                           33.916252       26756
 lincom                                 30.504431         157
 redis_pw                               26.534339        4203
 soft_charge                            24.537334          51
 orthch                                 23.630808          51
 fftbrc_mpi                             20.973284        1421
 newband                                18.416951         487
 orth1                                  17.347021        3525
 redis_proj                              8.577195        4249
 rpro_isp                                7.055145          13
 strnlr                                  5.790455           1
 m_bcast_z                               5.344644        1373
 ggemm                                   5.201643         617
 choleski                                5.114194          51
 potlok                                  4.603736          52
 lapack                                  3.809347         482
 rpro1                                   3.589746        1022
 racc0                                   3.001424         675
 vhamil                                  2.678035        1184
 pw_charge                               2.507698        1173
 augmentation_charge                     2.501333          51
 raccmu_                                 2.444822         482
 racc0mu                                 2.417664         482
 crrexp_mul_work_add                     2.317735      233714
 setdij_                                 1.975581          79
 potxc_metagga                           1.964970           1
 fornlr                                  1.937932           1
 crrexp_mul_wave                         1.823339      277346
 redis_pw_over_bands                     1.624637          51
 redis_pw_all                            1.624376          50
 m_bcast_d                               1.259624        1125
 w1_projall                              1.223103         347
 rspher_all                              1.069311          14
 w1_dscal                                1.067846         675
 rpromu                                  1.040041          91
 gemm                                    1.001149       97364
 phaser                                  0.885123          43
 fft_gq                                  0.627257          51
 proall                                  0.603480           1
 forhar                                  0.565588           1
 fortau                                  0.565057           1
 forloc                                  0.563831           1
 rpromu_gemm                             0.381873       18382
 stufak                                  0.332208           1
 depsum                                  0.291646          51
 w1_copy                                 0.161722        1446
 fordep                                  0.144917           1
 overl                                   0.131966        1606
 densta                                  0.112527          62
 pothar                                  0.096968          52
 fewald                                  0.087511         105
 rsp                                     0.068376         105
 setup_precond                           0.056910         135
 inisym                                  0.051937           1
 apply_precond                           0.049934         347
 overl1                                  0.021962         482
 strehar                                 0.012826           1
 strkin                                  0.011111           1
 strelo                                  0.011052           1
 rcp                                     0.005504         105
 brgrid                                  0.001317           1
 posmap                                  0.000956           2
 truncate_high_frequency_w1              0.000665         617
 crpa_reader                             0.000231           1
 set_rsgf_all                            0.000106          53
 set_dd_magatom                          0.000059           2
 vectorpot                               0.000029           1
 rotate_active_occupied_orbital          0.000019           1
 shift_bands_between_low_high            0.000009           1

Profiling took   0.976066  0.420083  0.007268  0.006154 seconds
Profiling took   1.286881 seconds