 vasp.6.3.2 27Jun22 (build Jan 05 2024 11:34:19) complex

 executed on           IFC15_impi date 2024.01.09  02:33:21

 INCAR:
   SYSTEM = MgO-rocksalt
   ISMEAR = 0
   SIGMA = 0.05
   EDIFF = 1E-6
   ALGO = ALL
   ISTART = 0
   IBRION = -1
   NSW = 0
   ISYM = 2
   DIPOL = 0.5 0.5 0.5
   IDIPOL = 3
   LDIPOL = .TRUE.
   METAGGA = M06L
   ENCUT = 520
   PREC = Accurate
   LASPH = .TRUE.
   LREAL = Auto
   ISPIN = 1
   NELM = 2000
   NELMIN = 8
   NCORE = 8
   LWAVE = .FALSE.
   LCHARG = .FALSE.

 POTCAR:    PAW_PBE Ag 02Apr2005
 POTCAR:    PAW_PBE Mg_pv 13Apr2007
 POTCAR:    PAW_PBE O 08Apr2002
 POTCAR:    PAW_PBE Ag 02Apr2005
   VRHFIN =Ag : s1 d10

   TITEL  = PAW_PBE Ag 02Apr2005
   POMASS =  107.868; ZVAL   =   11.000    mass and valenz
   ENMAX  =  249.844; ENMIN  =  187.383 eV

   TITEL  = PAW_PBE Mg_pv 13Apr2007
   POMASS =   24.305; ZVAL   =    8.000    mass and valenz
   ENMAX  =  403.929; ENMIN  =  302.947 eV

   TITEL  = PAW_PBE O 08Apr2002
   POMASS =   16.000; ZVAL   =    6.000    mass and valenz
   ENMAX  =  400.000; ENMIN  =  300.000 eV

 Optimization of the real space projectors (new method)

 maximal supplied QI-value         = 15.12
 optimisation between [QCUT,QGAM] = [ 11.64, 23.28] = [ 37.95,151.78] Ry
 Optimized for a Real-space Cutoff    1.45 Angstroem

   l    n(q)    QCUT    max X(q) W(low)/X(q) W(high)/X(q)  e(spline)
   2      9    11.641    53.897    0.22E-03    0.42E-04    0.28E-06
   2      9    11.641    52.416    0.23E-03    0.44E-04    0.29E-06
   0     10    11.641   122.045    0.51E-04    0.25E-04    0.16E-06
   0     10    11.641    73.629    0.49E-04    0.24E-04    0.16E-06
   1     10    11.641    15.255    0.99E-04    0.55E-04    0.11E-06
   1     10    11.641     9.562    0.81E-04    0.47E-04    0.95E-07
 Optimization of the real space projectors (new method)

[...]

   l    n(q)    QCUT    max X(q) W(low)/X(q) W(high)/X(q)  e(spline)
   1      8    11.527     2.974    0.44E-04    0.56E-04    0.12E-06
   1      8    11.527     4.279    0.12E-03    0.12E-03    0.26E-06
   0      9    11.527    16.381    0.46E-04    0.64E-04    0.78E-07
   0      9    11.527     5.611    0.26E-04    0.43E-04    0.55E-07
   2      8    11.527     4.652    0.22E-03    0.72E-04    0.47E-07
 Optimization of the real space projectors (new method)

 maximal supplied QI-value         = 24.76
 optimisation between [QCUT,QGAM] = [ 11.64, 23.27] = [ 37.91,151.63] Ry
 Optimized for a Real-space Cutoff    1.14 Angstroem

   l    n(q)    QCUT    max X(q) W(low)/X(q) W(high)/X(q)  e(spline)
   0      8    11.635    20.381    0.10E-03    0.33E-03    0.24E-06
   0      8    11.635    15.268    0.11E-03    0.35E-03    0.26E-06
   1      7    11.635     5.964    0.24E-03    0.31E-03    0.30E-06
   1      7    11.635     5.382    0.22E-03    0.25E-03    0.26E-06
  PAW_PBE Ag 02Apr2005                  :
  PAW_PBE Mg_pv 13Apr2007               :
  PAW_PBE O 08Apr2002                   :

 POSCAR: Ag Mg  O
  positions in direct lattice
  velocities in cartesian coordinates

 METAGGA = M06L     LMAXTAU =  6    LMIXTAU =  F

 VTST: version 4.1, (05/19/21)

 CHAIN: initializing optimizer

 OPT: Using VASP Dynamics algorithm
 CHAIN: Read ICHAIN            0

 POSCAR: Ag Mg  O
  positions in direct lattice
  velocities in cartesian coordinates

 ion  position               nearest neighbor table
   1  0.400  0.563  0.612- 157 2.54   4 2.67   3 2.71  55 2.75
   2  0.400  0.500  0.835-   3 2.58
   3  0.400  0.499  0.718-   2 2.58   1 2.71   4 2.71
   4  0.400  0.436  0.612- 153 2.53   1 2.67   3 2.71  55 2.76
   5  0.000  0.000  0.407- 107 2.11 108 2.11 123 2.11 188 2.11 105 2.11
   6  0.100  0.100  0.407- 107 2.11 108 2.11 112 2.11 127 2.11 106 2.11
   7  0.000  0.100  0.503- 105 2.11 106 2.11 109 2.11 186 2.11 107 2.11
   8  0.100  0.000  0.503- 105 2.11 106 2.11 122 2.11 125 2.11 108 2.11
   9  0.000  0.200  0.407- 111 2.11 107 2.11 112 2.11 192 2.11 109 2.11
  10  0.100  0.300  0.407- 112 2.11 111 2.11 116 2.11 131 2.11 110 2.11
  11  0.000  0.300  0.503- 109 2.11 110 2.11 113 2.11 190 2.11 111 2.11
  12  0.100  0.200  0.503- 110 2.11 109 2.11 106 2.11 129 2.11 112 2.11
  13  0.000  0.400  0.407- 111 2.11 115 2.11 116 2.11 196 2.11 113 2.11
  14  0.100  0.500  0.407- 115 2.11 116 2.11 120 2.11 135 2.11 114 2.11
  15  0.000  0.500  0.503- 113 2.11 114 2.11 117 2.11 194 2.11 115 2.11
  16  0.100  0.400  0.503- 110 2.11 113 2.11 114 2.11 133 2.11 116 2.11
  17  0.000  0.600  0.407- 115 2.11 119 2.11 120 2.11 200 2.11 117 2.11
  18  0.100  0.700  0.407- 124 2.11 120 2.11 119 2.11 139 2.11 118 2.11
  19  0.000  0.700  0.503- 121 2.11 118 2.11 117 2.11 198 2.11 119 2.11
  20  0.100  0.600  0.503- 114 2.11 117 2.11 118 2.11 137 2.11 120 2.11
  21  0.000  0.800  0.407- 119 2.11 123 2.11 124 2.11 204 2.11 121 2.11
  22  0.100  0.900  0.407- 108 2.11 123 2.11 124 2.11 143 2.11 122 2.11
  23  0.000  0.900  0.503- 105 2.11 121 2.11 122 2.11 202 2.11 123 2.11
  24  0.100  0.800  0.503- 118 2.11 121 2.11 122 2.11 141 2.11 124 2.11
  25  0.200  0.000  0.407- 128 2.11 127 2.11 108 2.11 143 2.11 125 2.11
  26  0.300  0.100  0.407- 127 2.11 128 2.11 132 2.11 147 2.11 126 2.11
  27  0.200  0.100  0.503- 126 2.11 125 2.11 106 2.11 129 2.11 127 2.11
  28  0.300  0.000  0.503- 125 2.11 126 2.11 142 2.11 145 2.11 128 2.11
  29  0.200  0.200  0.407- 131 2.11 132 2.11 112 2.11 127 2.11 129 2.11
  30  0.300  0.300  0.407- 131 2.11 132 2.11 136 2.11 151 2.11 130 2.11
  31  0.200  0.300  0.503- 129 2.11 130 2.11 110 2.11 133 2.11 131 2.11
  32  0.300  0.200  0.503- 129 2.11 130 2.11 126 2.11 149 2.11 132 2.11
  33  0.200  0.400  0.407- 136 2.11 131 2.11 135 2.11 116 2.11 133 2.11
  34  0.300  0.500  0.407- 135 2.11 136 2.11 140 2.11 155 2.11 134 2.11
  35  0.200  0.500  0.503- 134 2.11 133 2.11 114 2.11 137 2.11 135 2.11
  36  0.300  0.400  0.503- 133 2.11 130 2.11 134 2.11 153 2.11 136 2.11
  37  0.200  0.600  0.407- 140 2.11 135 2.11 139 2.11 120 2.11 137 2.11
  38  0.300  0.700  0.407- 139 2.11 144 2.11 140 2.11 159 2.11 138 2.11
  39  0.200  0.700  0.503- 138 2.11 141 2.11 118 2.11 137 2.11 139 2.11
  40  0.300  0.600  0.503- 137 2.11 134 2.11 138 2.11 157 2.11 140 2.11
  41  0.200  0.800  0.407- 139 2.11 144 2.11 143 2.11 124 2.11 141 2.11
  42  0.300  0.900  0.407- 143 2.11 128 2.11 144 2.11 163 2.11 142 2.11
  43  0.200  0.900  0.503- 142 2.11 125 2.11 141 2.11 122 2.11 143 2.11
  44  0.300  0.800  0.503- 138 2.11 141 2.11 142 2.11 161 2.11 144 2.11
  45  0.400  0.000  0.407- 128 2.11 147 2.11 148 2.11 163 2.11 145 2.11
  46  0.500  0.100  0.407- 147 2.11 148 2.11 152 2.11 167 2.11 146 2.11
  47  0.400  0.100  0.503- 126 2.11 145 2.11 146 2.11 149 2.11 147 2.11
  48  0.500  0.000  0.503- 145 2.11 146 2.11 162 2.11 165 2.11 148 2.11
  49  0.400  0.200  0.407- 151 2.11 147 2.11 132 2.11 152 2.11 149 2.11
  50  0.500  0.300  0.407- 152 2.11 151 2.11 156 2.11 171 2.11 150 2.11
  51  0.400  0.300  0.503- 149 2.11 130 2.11 150 2.11 153 2.11 151 2.11
  52  0.500  0.200  0.503- 150 2.11 149 2.11 146 2.11 169 2.11 152 2.11
  53  0.400  0.400  0.407- 136 2.11 151 2.11 155 2.11 156 2.11 153 2.11
  54  0.500  0.500  0.407- 155 2.11 156 2.11 160 2.11 175 2.11 154 2.11
  55  0.400  0.500  0.503- 134 2.11 153 2.11 154 2.11 157 2.11 155 2.11   1 2.75   4 2.76
  56  0.500  0.400  0.503- 150 2.11 153 2.11 154 2.11 173 2.11 156 2.11
  57  0.400  0.600  0.407- 140 2.11 155 2.11 159 2.11 160 2.11 157 2.11
  58  0.500  0.700  0.407- 164 2.11 160 2.11 159 2.11 179 2.11 158 2.11
  59  0.400  0.700  0.503- 161 2.11 157 2.11 158 2.11 138 2.11 159 2.11
  60  0.500  0.600  0.503- 154 2.11 157 2.11 158 2.11 177 2.11 160 2.11
[...]
 190  0.900  0.300  0.503-  92 2.11  91 2.11  11 2.11  96 2.11  90 2.11
 191  0.800  0.300  0.407-  70 2.11  89 2.11  90 2.11  93 2.11  91 2.11
 192  0.900  0.200  0.407-  90 2.11  86 2.11  89 2.11   9 2.11  92 2.11
 193  0.800  0.400  0.503-  76 2.11  91 2.11  95 2.11  96 2.11  93 2.11
 194  0.900  0.500  0.503-  15 2.11  95 2.11  96 2.11 100 2.11  94 2.11
 195  0.800  0.500  0.407-  74 2.11  93 2.11  94 2.11  97 2.11  95 2.11
 196  0.900  0.400  0.407-  13 2.11  90 2.11  93 2.11  94 2.11  96 2.11
 197  0.800  0.600  0.503-  80 2.11  95 2.11  99 2.11 100 2.11  97 2.11
 198  0.900  0.700  0.503- 104 2.11  99 2.11 100 2.11  19 2.11  98 2.11
 199  0.800  0.700  0.407-  78 2.11 101 2.11  98 2.11  97 2.11  99 2.11
 200  0.900  0.600  0.407-  17 2.11  94 2.11  97 2.11  98 2.11 100 2.11
 201  0.800  0.800  0.503-  84 2.11  99 2.11 103 2.11 104 2.11 101 2.11
 202  0.900  0.900  0.503-  23 2.11  88 2.11 103 2.11 104 2.11 102 2.11
 203  0.800  0.900  0.407-  82 2.11  85 2.11 101 2.11 102 2.11 103 2.11
 204  0.900  0.800  0.407-  98 2.11  21 2.11 101 2.11 102 2.11 104 2.11

  LATTYP: Found a simple tetragonal cell.
 ALAT       =    21.1388521970
 C/A-ratio  =     1.0461251639

  Lattice vectors:

 A1 = (  21.1388521970,   0.0000000000,   0.0000000000)
 A2 = (   0.0000000000,  21.1388521970,   0.0000000000)
 A3 = (   0.0000000000,   0.0000000000,  22.1138852197)

Analysis of symmetry for initial positions (statically):
 Subroutine PRICEL returns:
 Original cell was already a primitive cell.

 Routine SETGRP: Setting up the symmetry group for a
 simple tetragonal supercell.

 Subroutine GETGRP returns: Found  1 space group operations
 (whereof  1 operations were pure point group operations)
 out of a pool of 16 trial point group operations.

The static configuration has the point symmetry C_1 .

Analysis of symmetry for dynamics (positions and initial velocities):
 Subroutine PRICEL returns:
 Original cell was already a primitive cell.

[...]

The dynamic configuration has the point symmetry C_1 .

Analysis of constrained symmetry for selective dynamics:
 Subroutine PRICEL returns:
 Original cell was already a primitive cell.

 Routine SETGRP: Setting up the symmetry group for a
 simple tetragonal supercell.

 Subroutine GETGRP returns: Found  1 space group operations
 (whereof  1 operations were pure point group operations)
 out of a pool of 16 trial point group operations.

The constrained configuration has the point symmetry C_1 .

 Subroutine INISYM returns: Found  1 space group operations
 (whereof  1 operations are pure point group operations),
 and found     1 'primitive' translations

                                     Primitive cell

  volume of cell :    9881.6133

  direct lattice vectors                    reciprocal lattice vectors
    21.138852197  0.000000000  0.000000000     0.047306258  0.000000000  0.000000000
     0.000000000 21.138852197  0.000000000     0.000000000  0.047306258  0.000000000
     0.000000000  0.000000000 22.113885220     0.000000000  0.000000000  0.045220457

  length of vectors
    21.138852197 21.138852197 22.113885220     0.047306258  0.047306258  0.045220457

  position of ions in fractional coordinates (direct lattice)
     0.400262498  0.562644202  0.611757253
     0.400180406  0.499857897  0.835303009
     0.400101799  0.499467099  0.718499130
     0.400198249  0.436299472  0.611663944
     0.000000000  0.000000000  0.406984115
     0.100000000  0.100000000  0.406984115
     0.000000000  0.100000000  0.502574971
     0.100000000  0.000000000  0.502574971
[...]
  500                  m_alltoallv_z                         0.147815                  6   8
  501                  map_scatter                           0.003978                  6   8
  502          m_sumb_d                              0.000416                          3   4
  503        fortau                                0.559372                            1   3
  504          m_sumb_d                              0.000189                          1   4
  505        forhar                                0.551340                            1   3
  506          m_sumb_d                              0.000191                          1   4
  507        strehar                               0.012847                            1   3
  508          m_sumb_d                              0.000282                          1   4
  509        m_bcast_d                             0.007244                            2   3
  510      potlok                                0.087735                              1   2
  511        fft3d_mpi                             0.058669                            5   3
  512          fftbrc_mpi                            0.054457                          5   4
  513            fftbas_plan_mpi                       0.054441                        5   5
  514              dfftw_execute                         0.017462                     15   6
  515              map_backward                          0.012992                      4   6
  516                map_gather                            0.002249                    2   7
  517                m_alltoallv_z                         0.009307                    2   7
  518                map_scatter                           0.001389                    2   7
  519              map_forward                           0.020250                      6   6
  520                map_gather                            0.001331                    4   7
  521                m_alltoallv_z                         0.011962                    4   7
  522                map_scatter                           0.006886                    4   7
  523        m_sumb_d                              0.001281                            2   3
  524        fewald                                0.001280                            2   3
  525          rsp                                   0.001172                          2   4
  526          rcp                                   0.000092                          2   4
  527        pothar                                0.001858                            1   3
  528          m_sumb_d                              0.000312                          1   4
  529        m_bcast_d                             0.008516                            1   3
  530      potlok_metagga                        2.101556                              1   2
  531        fft3d_mpi                             0.306482                           17   3
  532          fftbrc_mpi                            0.294149                         17   4
  533            fftbas_plan_mpi                       0.294095                       17   5
  534              dfftw_execute                         0.053595                     51   6
  535              map_forward                           0.073878                     22   6
  536                map_gather                            0.005285                   13   7
  537                m_alltoallv_z                         0.049409                   13   7
  538                map_scatter                           0.018862                   13   7
  539              map_backward                          0.153568                     12   6
  540                map_gather                            0.006655                    6   7
  541                m_alltoallv_z                         0.142889                    6   7
  542                map_scatter                           0.003898                    6   7
  543        m_sumb_d                              0.000346                            3   3
  544        m_bcast_d                             0.014140                            2   3
  545      set_dd_magatom                        0.000000                              1   2
  546      set_dd_paw                            5.083007                              1   2
  547        set_rsgf_all                          0.000001                            1   3
  548        m_sumb_d                              5.082755                            7   3
  549      m_bcast_d                             0.000442                              2   2

 Flat profile

 dfftw_execute                         334.590448      112911
 m_sumb_d                              253.937422       13684
 edwav                                 125.234219          44
 potlok_metagga                         92.092315          46
 map_scatter                            62.360174       37884
 map_gather                             55.251343       37884
 total_time                             54.189229           1
 m_alltoallv_z                          46.668248       37884
 fftwav_mpi                             37.135768       20760
 lincom                                 28.850949         139
 map_forward                            27.650868       42994
 kinhamil_tau                           23.309146        3749
 fftbas_plan_mpi                        22.102250       37637
 eddav                                  19.088963           5
 orth1                                  17.220929        3407
 m_alltoall_d                           15.001243       24899
 set_kineden                            14.281334          64
 eccp_tau                                9.455333        2604
 fftext_mpi                              5.649323       15612
 ggemm                                   5.593351         641
 m_bcast_z                               5.078143        1425
 choleski                                4.891775          45
 lapack                                  4.007227         501
 eddiag                                  2.777700          23
 vhamil                                  2.636050        1145
 crrexp_mul_work_add                     2.272322      227868
 pw_charge                               2.176231        1035
 rpro1                                   2.000739         977
 crrexp_mul_wave                         1.803389      273564
 potxc_metagga                           1.780414           1
 setdij_                                 1.597331          73
 augmentation_charge                     1.431131          45
 racc0                                   1.314934         616
 fft3d_mpi                               1.187606       37637
 m_bcast_d                               1.143292        1144
 rspher_all                              1.064521          14
 gemm                                    1.058045      102204
 w1_dscal                                0.991703         616
 redis_pw                                0.978628        4006
 phaser                                  0.837142          40
 potlok                                  0.675437          46
 fortau                                  0.559183           1
 forhar                                  0.551149           1
 forloc                                  0.548643           1
 elmin_all                               0.408336           1
 racc0mu                                 0.395034         501
 rpromu_gemm                             0.389087       18564
 stufak                                  0.334833           1
 map_backward                            0.307939       32280
 stretau                                 0.238541           1
 w1_copy                                 0.166979        1503
 rpromu                                  0.159853          91
 redis_proj                              0.131283        4072
 soft_charge                             0.130785          45
 overl                                   0.129163        1568
 fftbas_mpi                              0.126371       36372
 orthch                                  0.120768          45
 pothar                                  0.067757          46
 inisym                                  0.061342           1
 rsp                                     0.060893          93
 apply_precond                           0.056170         361
 setup_precond                           0.050634         140
 fft_gq                                  0.034173          45
 depsum                                  0.027779          45
 overl1                                  0.022869         501
 set_charge                              0.021386          45
 force_and_stress                        0.015047           1
 densta                                  0.013155          56
 strehar                                 0.012565           1
 set_dd_paw                              0.011585          47
 hamiltmu_tau                            0.011453         501
 strelo                                  0.010239           1
 hamilt_local_tau                        0.008254         644
 rpro_isp                                0.007398          13
 fewald                                  0.007161          93
 newband                                 0.007153         506
 strnlr                                  0.006838           1
 strkin                                  0.005876           1
 raccmu_                                 0.005666         501
 rcp                                     0.004981          93
 fftbrc_mpi                              0.004263        1265
 w1_projall                              0.002979         361
 fornlr                                  0.002320           1
 brgrid                                  0.001310           1
 truncate_high_frequency_w1              0.000653         641
 redis_pw_all                            0.000390          44
 fordep                                  0.000276           1
 crpa_reader                             0.000236           1
 redis_pw_over_bands                     0.000182          45
 posmap                                  0.000097           2
 set_rsgf_all                            0.000093          47
 proall                                  0.000057           1
 vectorpot                               0.000029           1
 rotate_active_occupied_orbital          0.000019           1
 set_dd_magatom                          0.000011           2
 shift_bands_between_low_high            0.000009           1
  summed up times    1296.60785603523

 Accumulative profile

 total_time                           1296.607856           1
 elmin_all                            1178.337401           1
 fft3d_mpi                             550.249511       37637
 fftbas_plan_mpi                       548.931271       37637
 fftbas_mpi                            530.894018       36372
 edwav                                 513.709225          44
 kinhamil_tau                          426.297462        3749
 fftwav_mpi                            353.065446       20760
 dfftw_execute                         334.590448      112911
 eccp_tau                              305.606525        2604
 m_sumb_d                              253.937422       13684
 set_dd_paw                            238.446448          47
 fftext_mpi                            220.761521       15612
 eddav                                 136.460338           5
 map_forward                           117.631837       42994
 set_kineden                           108.740408          64
 potlok_metagga                        106.203980          46
 eddiag                                 89.791981          23
 hamilt_local_tau                       74.819303         644
 map_backward                           74.606735       32280
 map_scatter                            62.360174       37884
 hamiltmu_tau                           60.761452         501
 map_gather                             55.251343       37884
 force_and_stress                       50.086210           1
 m_alltoallv_z                          46.668248       37884
 stretau                                32.652813           1
 lincom                                 28.850949         139
 set_charge                             23.703235          45
 orthch                                 22.496237          45
 soft_charge                            21.632441          45
 newband                                19.198666         506
 fftbrc_mpi                             18.167887        1265
 orth1                                  17.220929        3407
 m_alltoall_d                           15.001243       24899
 redis_pw                               10.974050        4006
 rpro_isp                                7.339091          13
 strnlr                                  5.939728           1
 ggemm                                   5.593351         641
 redis_proj                              5.137103        4072
 m_bcast_z                               5.078143        1425
 choleski                                4.891775          45
 lapack                                  4.007227         501
 potlok                                  3.947779          46
 rpro1                                   3.638717         977
 racc0                                   2.659177         616
 vhamil                                  2.636050        1145
 raccmu_                                 2.599392         501
 racc0mu                                 2.570857         501
 crrexp_mul_work_add                     2.272322      227868
 pw_charge                               2.176231        1035
 potxc_metagga                           2.058066           1
 fornlr                                  2.000923           1
 augmentation_charge                     1.967462          45
 setdij_                                 1.914977          73
 crrexp_mul_wave                         1.803389      273564
 redis_pw_over_bands                     1.525899          45
 redis_pw_all                            1.525717          44
 w1_projall                              1.351053         361
 m_bcast_d                               1.143292        1144
 rpromu                                  1.093481          91
 rspher_all                              1.064521          14
 gemm                                    1.058045      102204
 w1_dscal                                0.991703         616
 phaser                                  0.837142          40
 proall                                  0.625797           1
 fft_gq                                  0.567969          45
 fortau                                  0.559372           1
 forhar                                  0.551340           1
 forloc                                  0.551296           1
 rpromu_gemm                             0.389087       18564
 stufak                                  0.334833           1
 densta                                  0.266962          56
 w1_copy                                 0.166979        1503
 fordep                                  0.145318           1
 overl                                   0.129163        1568
 pothar                                  0.085382          46
 depsum                                  0.081947          45
 fewald                                  0.079608          93
 inisym                                  0.061439           1
 rsp                                     0.060893          93
 setup_precond                           0.059854         140
 apply_precond                           0.056170         361
 overl1                                  0.022869         501
 strehar                                 0.012847           1
 strelo                                  0.010886           1
 strkin                                  0.006516           1
 rcp                                     0.004981          93
 brgrid                                  0.001310           1
 truncate_high_frequency_w1              0.000653         641
 crpa_reader                             0.000236           1
 posmap                                  0.000097           2
 set_rsgf_all                            0.000093          47
 vectorpot                               0.000029           1
 rotate_active_occupied_orbital          0.000019           1
 set_dd_magatom                          0.000011           2
 shift_bands_between_low_high            0.000009           1

Profiling took   0.912082  0.400555  0.007842  0.006587 seconds
Profiling took   1.187881 seconds