 vasp.6.3.2 27Jun22 (build Jan 05 2024 11:34:19) complex

 executed on           IFC15_impi date 2024.01.09  02:41:56

 INCAR:
   SYSTEM = MgO-rocksalt
   ISMEAR = 0
   SIGMA = 0.05
   EDIFF = 1E-6
   ALGO = ALL
   ISTART = 0
   IBRION = -1
   NSW = 0
   ISYM = 2
   DIPOL = 0.5 0.5 0.5
   IDIPOL = 3
   LDIPOL = .TRUE.
   METAGGA = M06L
   ENCUT = 520
   PREC = Accurate
   LASPH = .TRUE.
   LREAL = Auto
   ISPIN = 1
   NELM = 2000
   NELMIN = 8
   NCORE = 8
   LWAVE = .FALSE.
   LCHARG = .FALSE.

 POTCAR:    PAW_PBE Au 04Oct2007
 POTCAR:    PAW_PBE Mg_pv 13Apr2007
 POTCAR:    PAW_PBE O 08Apr2002
 POTCAR:    PAW_PBE Au 04Oct2007
   VRHFIN =Au: s1d10

   TITEL  = PAW_PBE Au 04Oct2007
   POMASS =  196.966; ZVAL   =   11.000    mass and valenz
   ENMAX  =  229.943; ENMIN  =  172.457 eV

   TITEL  = PAW_PBE Mg_pv 13Apr2007
   POMASS =   24.305; ZVAL   =    8.000    mass and valenz
   ENMAX  =  403.929; ENMIN  =  302.947 eV

   TITEL  = PAW_PBE O 08Apr2002
   POMASS =   16.000; ZVAL   =    6.000    mass and valenz
   ENMAX  =  400.000; ENMIN  =  300.000 eV

 Optimization of the real space projectors (new method)

 maximal supplied QI-value         = 15.12
 optimisation between [QCUT,QGAM] = [ 11.64, 23.28] = [ 37.95,151.78] Ry
 Optimized for a Real-space Cutoff    1.49 Angstroem

   l    n(q)    QCUT    max X(q) W(low)/X(q) W(high)/X(q)  e(spline)
   2      9    11.641    60.898    0.24E-03    0.10E-03    0.19E-06
   2      9    11.641    58.894    0.25E-03    0.10E-03    0.19E-06
   0     10    11.641   109.617    0.73E-04    0.33E-04    0.11E-06
   0     10    11.641    75.026    0.71E-04    0.32E-04    0.11E-06
   1     10    11.641    16.344    0.27E-04    0.97E-04    0.16E-06
   1     10    11.641    10.160    0.23E-04    0.77E-04    0.13E-06
 Optimization of the real space projectors (new method)

[...]

   l    n(q)    QCUT    max X(q) W(low)/X(q) W(high)/X(q)  e(spline)
   1      8    11.527     2.974    0.44E-04    0.56E-04    0.12E-06
   1      8    11.527     4.279    0.12E-03    0.12E-03    0.26E-06
   0      9    11.527    16.381    0.46E-04    0.64E-04    0.78E-07
   0      9    11.527     5.611    0.26E-04    0.43E-04    0.55E-07
   2      8    11.527     4.652    0.22E-03    0.72E-04    0.47E-07
 Optimization of the real space projectors (new method)

 maximal supplied QI-value         = 24.76
 optimisation between [QCUT,QGAM] = [ 11.64, 23.27] = [ 37.91,151.63] Ry
 Optimized for a Real-space Cutoff    1.14 Angstroem

   l    n(q)    QCUT    max X(q) W(low)/X(q) W(high)/X(q)  e(spline)
   0      8    11.635    20.381    0.10E-03    0.33E-03    0.24E-06
   0      8    11.635    15.268    0.11E-03    0.35E-03    0.26E-06
   1      7    11.635     5.964    0.24E-03    0.31E-03    0.30E-06
   1      7    11.635     5.382    0.22E-03    0.25E-03    0.26E-06
  PAW_PBE Au 04Oct2007                  :
  PAW_PBE Mg_pv 13Apr2007               :
  PAW_PBE O 08Apr2002                   :

 POSCAR: Au Mg  O
  positions in direct lattice
  velocities in cartesian coordinates

 METAGGA = M06L     LMAXTAU =  6    LMIXTAU =  F

 VTST: version 4.1, (05/19/21)

 CHAIN: initializing optimizer

 OPT: Using VASP Dynamics algorithm
 CHAIN: Read ICHAIN            0

 POSCAR: Au Mg  O
  positions in direct lattice
  velocities in cartesian coordinates

 ion  position               nearest neighbor table
   1  0.400  0.425  0.603- 153 2.29   2 2.53  55 2.73
   2  0.400  0.510  0.684-   1 2.53   3 2.68   4 2.74
   3  0.400  0.633  0.713-   4 2.57   2 2.68
   4  0.400  0.605  0.600- 157 2.16   3 2.57   2 2.74  59 2.95  40 3.02  60 3.02
   5  0.000  0.000  0.407- 107 2.11 108 2.11 123 2.11 188 2.11 105 2.11
   6  0.100  0.100  0.407- 107 2.11 108 2.11 112 2.11 127 2.11 106 2.11
   7  0.000  0.100  0.503- 105 2.11 106 2.11 109 2.11 186 2.11 107 2.11
   8  0.100  0.000  0.503- 105 2.11 106 2.11 122 2.11 125 2.11 108 2.11
   9  0.000  0.200  0.407- 111 2.11 107 2.11 112 2.11 192 2.11 109 2.11
  10  0.100  0.300  0.407- 112 2.11 111 2.11 116 2.11 131 2.11 110 2.11
  11  0.000  0.300  0.503- 109 2.11 110 2.11 113 2.11 190 2.11 111 2.11
  12  0.100  0.200  0.503- 110 2.11 109 2.11 106 2.11 129 2.11 112 2.11
  13  0.000  0.400  0.407- 111 2.11 115 2.11 116 2.11 196 2.11 113 2.11
  14  0.100  0.500  0.407- 115 2.11 116 2.11 120 2.11 135 2.11 114 2.11
  15  0.000  0.500  0.503- 113 2.11 114 2.11 117 2.11 194 2.11 115 2.11
  16  0.100  0.400  0.503- 110 2.11 113 2.11 114 2.11 133 2.11 116 2.11
  17  0.000  0.600  0.407- 115 2.11 119 2.11 120 2.11 200 2.11 117 2.11
  18  0.100  0.700  0.407- 124 2.11 120 2.11 119 2.11 139 2.11 118 2.11
  19  0.000  0.700  0.503- 121 2.11 118 2.11 117 2.11 198 2.11 119 2.11
  20  0.100  0.600  0.503- 114 2.11 117 2.11 118 2.11 137 2.11 120 2.11
  21  0.000  0.800  0.407- 119 2.11 123 2.11 124 2.11 204 2.11 121 2.11
  22  0.100  0.900  0.407- 108 2.11 123 2.11 124 2.11 143 2.11 122 2.11
  23  0.000  0.900  0.503- 105 2.11 121 2.11 122 2.11 202 2.11 123 2.11
  24  0.100  0.800  0.503- 118 2.11 121 2.11 122 2.11 141 2.11 124 2.11
  25  0.200  0.000  0.407- 128 2.11 127 2.11 108 2.11 143 2.11 125 2.11
  26  0.300  0.100  0.407- 127 2.11 128 2.11 132 2.11 147 2.11 126 2.11
  27  0.200  0.100  0.503- 126 2.11 125 2.11 106 2.11 129 2.11 127 2.11
  28  0.300  0.000  0.503- 125 2.11 126 2.11 142 2.11 145 2.11 128 2.11
  29  0.200  0.200  0.407- 131 2.11 132 2.11 112 2.11 127 2.11 129 2.11
  30  0.300  0.300  0.407- 131 2.11 132 2.11 136 2.11 151 2.11 130 2.11
  31  0.200  0.300  0.503- 129 2.11 130 2.11 110 2.11 133 2.11 131 2.11
  32  0.300  0.200  0.503- 129 2.11 130 2.11 126 2.11 149 2.11 132 2.11
  33  0.200  0.400  0.407- 136 2.11 131 2.11 135 2.11 116 2.11 133 2.11
  34  0.300  0.500  0.407- 135 2.11 136 2.11 140 2.11 155 2.11 134 2.11
  35  0.200  0.500  0.503- 134 2.11 133 2.11 114 2.11 137 2.11 135 2.11
  36  0.300  0.400  0.503- 133 2.11 130 2.11 134 2.11 153 2.11 136 2.11
  37  0.200  0.600  0.407- 140 2.11 135 2.11 139 2.11 120 2.11 137 2.11
  38  0.300  0.700  0.407- 139 2.11 144 2.11 140 2.11 159 2.11 138 2.11
  39  0.200  0.700  0.503- 138 2.11 141 2.11 118 2.11 137 2.11 139 2.11
  40  0.300  0.600  0.503- 137 2.11 134 2.11 138 2.11 157 2.11 140 2.11   4 3.02
  41  0.200  0.800  0.407- 139 2.11 144 2.11 143 2.11 124 2.11 141 2.11
  42  0.300  0.900  0.407- 143 2.11 128 2.11 144 2.11 163 2.11 142 2.11
  43  0.200  0.900  0.503- 142 2.11 125 2.11 141 2.11 122 2.11 143 2.11
  44  0.300  0.800  0.503- 138 2.11 141 2.11 142 2.11 161 2.11 144 2.11
  45  0.400  0.000  0.407- 128 2.11 147 2.11 148 2.11 163 2.11 145 2.11
  46  0.500  0.100  0.407- 147 2.11 148 2.11 152 2.11 167 2.11 146 2.11
  47  0.400  0.100  0.503- 126 2.11 145 2.11 146 2.11 149 2.11 147 2.11
  48  0.500  0.000  0.503- 145 2.11 146 2.11 162 2.11 165 2.11 148 2.11
  49  0.400  0.200  0.407- 151 2.11 147 2.11 132 2.11 152 2.11 149 2.11
  50  0.500  0.300  0.407- 152 2.11 151 2.11 156 2.11 171 2.11 150 2.11
  51  0.400  0.300  0.503- 149 2.11 130 2.11 150 2.11 153 2.11 151 2.11
  52  0.500  0.200  0.503- 150 2.11 149 2.11 146 2.11 169 2.11 152 2.11
  53  0.400  0.400  0.407- 136 2.11 151 2.11 155 2.11 156 2.11 153 2.11
  54  0.500  0.500  0.407- 155 2.11 156 2.11 160 2.11 175 2.11 154 2.11
  55  0.400  0.500  0.503- 134 2.11 153 2.11 154 2.11 157 2.11 155 2.11   1 2.73
  56  0.500  0.400  0.503- 150 2.11 153 2.11 154 2.11 173 2.11 156 2.11
  57  0.400  0.600  0.407- 140 2.11 155 2.11 159 2.11 160 2.11 157 2.11
  58  0.500  0.700  0.407- 164 2.11 160 2.11 159 2.11 179 2.11 158 2.11
  59  0.400  0.700  0.503- 161 2.11 157 2.11 158 2.11 138 2.11 159 2.11   4 2.95
  60  0.500  0.600  0.503- 154 2.11 157 2.11 158 2.11 177 2.11 160 2.11   4 3.02
[...]
 190  0.900  0.300  0.503-  92 2.11  91 2.11  11 2.11  96 2.11  90 2.11
 191  0.800  0.300  0.407-  70 2.11  89 2.11  90 2.11  93 2.11  91 2.11
 192  0.900  0.200  0.407-  90 2.11  86 2.11  89 2.11   9 2.11  92 2.11
 193  0.800  0.400  0.503-  76 2.11  91 2.11  95 2.11  96 2.11  93 2.11
 194  0.900  0.500  0.503-  15 2.11  95 2.11  96 2.11 100 2.11  94 2.11
 195  0.800  0.500  0.407-  74 2.11  93 2.11  94 2.11  97 2.11  95 2.11
 196  0.900  0.400  0.407-  13 2.11  90 2.11  93 2.11  94 2.11  96 2.11
 197  0.800  0.600  0.503-  80 2.11  95 2.11  99 2.11 100 2.11  97 2.11
 198  0.900  0.700  0.503- 104 2.11  99 2.11 100 2.11  19 2.11  98 2.11
 199  0.800  0.700  0.407-  78 2.11 101 2.11  98 2.11  97 2.11  99 2.11
 200  0.900  0.600  0.407-  17 2.11  94 2.11  97 2.11  98 2.11 100 2.11
 201  0.800  0.800  0.503-  84 2.11  99 2.11 103 2.11 104 2.11 101 2.11
 202  0.900  0.900  0.503-  23 2.11  88 2.11 103 2.11 104 2.11 102 2.11
 203  0.800  0.900  0.407-  82 2.11  85 2.11 101 2.11 102 2.11 103 2.11
 204  0.900  0.800  0.407-  98 2.11  21 2.11 101 2.11 102 2.11 104 2.11

  LATTYP: Found a simple tetragonal cell.
 ALAT       =    21.1388521970
 C/A-ratio  =     1.0461251639

  Lattice vectors:

 A1 = (  21.1388521970,   0.0000000000,   0.0000000000)
 A2 = (   0.0000000000,  21.1388521970,   0.0000000000)
 A3 = (   0.0000000000,   0.0000000000,  22.1138852197)

Analysis of symmetry for initial positions (statically):
 Subroutine PRICEL returns:
 Original cell was already a primitive cell.

 Routine SETGRP: Setting up the symmetry group for a
 simple tetragonal supercell.

 Subroutine GETGRP returns: Found  1 space group operations
 (whereof  1 operations were pure point group operations)
 out of a pool of 16 trial point group operations.

The static configuration has the point symmetry C_1 .

Analysis of symmetry for dynamics (positions and initial velocities):
 Subroutine PRICEL returns:
 Original cell was already a primitive cell.

[...]

The dynamic configuration has the point symmetry C_1 .

Analysis of constrained symmetry for selective dynamics:
 Subroutine PRICEL returns:
 Original cell was already a primitive cell.

 Routine SETGRP: Setting up the symmetry group for a
 simple tetragonal supercell.

 Subroutine GETGRP returns: Found  1 space group operations
 (whereof  1 operations were pure point group operations)
 out of a pool of 16 trial point group operations.

The constrained configuration has the point symmetry C_1 .

 Subroutine INISYM returns: Found  1 space group operations
 (whereof  1 operations are pure point group operations),
 and found     1 'primitive' translations

                                     Primitive cell

  volume of cell :    9881.6133

  direct lattice vectors                    reciprocal lattice vectors
    21.138852197  0.000000000  0.000000000     0.047306258  0.000000000  0.000000000
     0.000000000 21.138852197  0.000000000     0.000000000  0.047306258  0.000000000
     0.000000000  0.000000000 22.113885220     0.000000000  0.000000000  0.045220457

  length of vectors
    21.138852197 21.138852197 22.113885220     0.047306258  0.047306258  0.045220457

  position of ions in fractional coordinates (direct lattice)
     0.399951201  0.425242954  0.603301976
     0.399957296  0.509675129  0.684179581
     0.400053355  0.632584174  0.713145052
     0.399972466  0.604759939  0.599963044
     0.000000000  0.000000000  0.406984115
     0.100000000  0.100000000  0.406984115
     0.000000000  0.100000000  0.502574971
[...]
  500                  m_alltoallv_z                         0.079029                  6   8
  501                  map_scatter                           0.003955                  6   8
  502          m_sumb_d                              0.000735                          3   4
  503        fortau                                0.561959                            1   3
  504          m_sumb_d                              0.004369                          1   4
  505        forhar                                0.552282                            1   3
  506          m_sumb_d                              0.001509                          1   4
  507        strehar                               0.019375                            1   3
  508          m_sumb_d                              0.006844                          1   4
  509        m_bcast_d                             0.000653                            2   3
  510      potlok                                0.084322                              1   2
  511        fft3d_mpi                             0.061316                            5   3
  512          fftbrc_mpi                            0.057271                          5   4
  513            fftbas_plan_mpi                       0.057254                        5   5
  514              dfftw_execute                         0.017743                     15   6
  515              map_backward                          0.012535                      4   6
  516                map_gather                            0.002241                    2   7
  517                m_alltoallv_z                         0.008841                    2   7
  518                map_scatter                           0.001406                    2   7
  519              map_forward                           0.023350                      6   6
  520                map_gather                            0.001212                    4   7
  521                m_alltoallv_z                         0.017396                    4   7
  522                map_scatter                           0.004672                    4   7
  523        m_sumb_d                              0.000462                            2   3
  524        fewald                                0.001288                            2   3
  525          rsp                                   0.001183                          2   4
  526          rcp                                   0.000091                          2   4
  527        pothar                                0.001991                            1   3
  528          m_sumb_d                              0.000548                          1   4
  529        m_bcast_d                             0.004726                            1   3
  530      potlok_metagga                        2.048300                              1   2
  531        fft3d_mpi                             0.254138                           17   3
  532          fftbrc_mpi                            0.241330                         17   4
  533            fftbas_plan_mpi                       0.241274                       17   5
  534              dfftw_execute                         0.053926                     51   6
  535              map_forward                           0.072978                     22   6
  536                map_gather                            0.005339                   13   7
  537                m_alltoallv_z                         0.052388                   13   7
  538                map_scatter                           0.014925                   13   7
  539              map_backward                          0.102285                     12   6
  540                map_gather                            0.006713                    6   7
  541                m_alltoallv_z                         0.091739                    6   7
  542                map_scatter                           0.003709                    6   7
  543        m_sumb_d                              0.000351                            3   3
  544        m_bcast_d                             0.011734                            2   3
  545      set_dd_magatom                        0.000000                              1   2
  546      set_dd_paw                            5.128925                              1   2
  547        set_rsgf_all                          0.000002                            1   3
  548        m_sumb_d                              5.128733                            7   3
  549      m_bcast_d                             0.000304                              2   2

 Flat profile

 dfftw_execute                         755.387636      255501
 m_sumb_d                              635.856095       28593
 edwav                                 323.338803         114
 potlok_metagga                        216.771620         116
 map_scatter                           141.660033       85764
 map_gather                            125.343672       85764
 m_alltoallv_z                          95.742546       85764
 fftwav_mpi                             81.792714       45890
 lincom                                 72.430244         349
 map_forward                            60.868376       95354
 total_time                             54.529860           1
 kinhamil_tau                           53.711699        8649
 fftbas_plan_mpi                        50.280506       85167
 m_alltoall_d                           35.688415       58219
 orth1                                  34.851272        6347
 set_kineden                            29.793234         134
 eccp_tau                               23.305694        6524
 eddav                                  19.316795           5
 fftext_mpi                             13.269330       36192
 choleski                               12.468136         115
 ggemm                                   5.601204         641
 pw_charge                               5.556304        2645
 m_bcast_z                               5.547239        1425
 vhamil                                  4.847012        2125
 augmentation_charge                     4.474811         115
 crrexp_mul_work_add                     4.234731      427788
 lapack                                  4.050427         501
 rpro1                                   4.011233        1957
 setdij_                                 3.711646         143
 racc0                                   3.418968        1596
 crrexp_mul_wave                         3.156089      473484
 eddiag                                  3.028039          58
 fft3d_mpi                               2.843320       85167
 w1_dscal                                2.580152        1596
 m_bcast_d                               2.456364        1354
 redis_pw                                2.164982        8101
 potxc_metagga                           1.800829           1
 potlok                                  1.690555         116
 phaser                                  1.567584          75
 rspher_all                              1.118323          14
 gemm                                    1.058809      102204
 elmin_all                               0.829386           1
 map_backward                            0.712565       74980
 fortau                                  0.557590           1
 forhar                                  0.550773           1
 forloc                                  0.550412           1
 racc0mu                                 0.390154         501
 rpromu_gemm                             0.388003       18564
 stufak                                  0.335297           1
 soft_charge                             0.322822         115
 redis_proj                              0.293761        7782
 orthch                                  0.284374         115
 fftbas_mpi                              0.284181       82082
 overl                                   0.259528        2688
 stretau                                 0.241118           1
 pothar                                  0.170892         116
 w1_copy                                 0.170742        1503
 rpromu                                  0.157426          91
 rsp                                     0.145721         233
 fft_gq                                  0.088712         115
 depsum                                  0.071325         115
 inisym                                  0.061384           1
 set_charge                              0.056641         115
 apply_precond                           0.050716         361
 setup_precond                           0.050403         140
 set_dd_paw                              0.036572         117
 densta                                  0.027894         126
 overl1                                  0.024269         501
 hamilt_local_tau                        0.020701        1624
 force_and_stress                        0.015712           1
 strehar                                 0.012531           1
 hamiltmu_tau                            0.012392         501
 rcp                                     0.011603         233
 fftbrc_mpi                              0.010697        3085
 strelo                                  0.010398           1
 fewald                                  0.007962         233
 newband                                 0.007419         506
 strnlr                                  0.007012           1
 rpro_isp                                0.005898          13
 strkin                                  0.005817           1
 raccmu_                                 0.005267         501
 fornlr                                  0.002364           1
 w1_projall                              0.002115         361
 brgrid                                  0.001331           1
 redis_pw_all                            0.001030         114
 truncate_high_frequency_w1              0.000713         641
 redis_pw_over_bands                     0.000486         115
 set_rsgf_all                            0.000294         117
 fordep                                  0.000279           1
 crpa_reader                             0.000258           1
 posmap                                  0.000119           2
 set_dd_magatom                          0.000058           2
 proall                                  0.000057           1
 vectorpot                               0.000029           1
 rotate_active_occupied_orbital          0.000019           1
 shift_bands_between_low_high            0.000008           1
  summed up times    2912.58052802086

 Accumulative profile

 total_time                           2912.580528           1
 elmin_all                            2791.817722           1
 edwav                                1326.812366         114
 fft3d_mpi                            1233.133533       85167
 fftbas_plan_mpi                      1229.995335       85167
 fftbas_mpi                           1189.461969       82082
 kinhamil_tau                          978.270257        8649
 fftwav_mpi                            775.211981       45890
 eccp_tau                              761.289552        6524
 dfftw_execute                         755.387636      255501
 m_sumb_d                              635.856095       28593
 set_dd_paw                            598.438492         117
 fftext_mpi                            509.643335       36192
 map_forward                           256.767775       95354
 potlok_metagga                        248.656681         116
 set_kineden                           229.739959         134
 eddiag                                222.127184          58
 hamilt_local_tau                      187.461673        1624
 map_backward                          167.559417       74980
 map_scatter                           141.660033       85764
 eddav                                 136.300386           5
 map_gather                            125.343672       85764
 m_alltoallv_z                          95.742546       85764
 lincom                                 72.430244         349
 set_charge                             61.353743         115
 hamiltmu_tau                           60.502834         501
 orthch                                 57.147299         115
 soft_charge                            55.214738         115
 force_and_stress                       51.803161           1
 fftbrc_mpi                             40.828244        3085
 m_alltoall_d                           35.688415       58219
 orth1                                  34.851272        6347
 stretau                                34.007413           1
 redis_pw                               26.984762        8101
 newband                                19.079565         506
 choleski                               12.468136         115
 redis_proj                             11.162396        7782
 potlok                                  9.835999         116
 rpro1                                   7.442553        1957
 rpro_isp                                7.297359          13
 racc0                                   6.910441        1596
 strnlr                                  6.180931           1
 augmentation_charge                     5.891277         115
 ggemm                                   5.601204         641
 pw_charge                               5.556304        2645
 m_bcast_z                               5.547239        1425
 vhamil                                  4.847012        2125
 crrexp_mul_work_add                     4.234731      427788
 setdij_                                 4.199650         143
 lapack                                  4.050427         501
 redis_pw_over_bands                     4.013930         115
 redis_pw_all                            4.013443         114
 crrexp_mul_wave                         3.156089      473484
 w1_dscal                                2.580152        1596
 raccmu_                                 2.567004         501
 racc0mu                                 2.537468         501
 m_bcast_d                               2.456364        1354
 fornlr                                  2.067488           1
 potxc_metagga                           2.002101           1
 phaser                                  1.567584          75
 fft_gq                                  1.426318         115
 w1_projall                              1.371761         361
 rspher_all                              1.118323          14
 rpromu                                  1.098679          91
 gemm                                    1.058809      102204
 proall                                  0.624947           1
 fortau                                  0.561959           1
 forhar                                  0.552282           1
 forloc                                  0.551766           1
 rpromu_gemm                             0.388003       18564
 stufak                                  0.335297           1
 overl                                   0.259528        2688
 densta                                  0.230321         126
 pothar                                  0.206401         116
 depsum                                  0.191087         115
 fewald                                  0.172099         233
 w1_copy                                 0.170742        1503
 fordep                                  0.163895           1
 rsp                                     0.145721         233
 inisym                                  0.061503           1
 setup_precond                           0.059139         140
 apply_precond                           0.050716         361
 overl1                                  0.024269         501
 strehar                                 0.019375           1
 rcp                                     0.011603         233
 strelo                                  0.010946           1
 strkin                                  0.006215           1
 brgrid                                  0.001331           1
 truncate_high_frequency_w1              0.000713         641
 set_rsgf_all                            0.000294         117
 crpa_reader                             0.000258           1
 posmap                                  0.000119           2
 set_dd_magatom                          0.000058           2
 vectorpot                               0.000029           1
 rotate_active_occupied_orbital          0.000019           1
 shift_bands_between_low_high            0.000008           1

Profiling took   1.836775  0.790959  0.007735  0.006372 seconds
Profiling took   2.509645 seconds